Pt C H C H						                        
   1.00000000000000     
     8.4555826189999994    0.0000000000000000    0.0000000000000000
     4.2277917970000001    7.3227490700000004    0.0000000000000000
     0.0000000000000000    0.0000000000000000   26.9039554599999988
   Pt   C    H    C    H 
    36     6     9     1     3
Selective dynamics
Direct
  0.0000000000000000  0.0000000000000000  0.3716925379999978   F   F   F
  0.3333332839999983  0.0000000000000000  0.3716925379999978   F   F   F
  0.6666666870000029  0.0000000000000000  0.3716925379999978   F   F   F
  0.0000000000000000  0.3333333129999971  0.3716925379999978   F   F   F
  0.3333333429999996  0.3333333129999971  0.3716925379999978   F   F   F
  0.6666666269999979  0.3333333129999971  0.3716925379999978   F   F   F
  0.0000000000756799  0.6666666269999979  0.3716925379999978   F   F   F
  0.3333333129999971  0.6666666269999979  0.3716925379999978   F   F   F
  0.6666666870000029  0.6666666269999979  0.3716925379999978   F   F   F
  0.1111110969999984  0.1111111270000009  0.4572308360000008   F   F   F
  0.4444444479999987  0.1111111270000009  0.4572308360000008   F   F   F
  0.7777777310000005  0.1111111270000009  0.4572308360000008   F   F   F
  0.1111111270000009  0.4444444180000033  0.4572308360000008   F   F   F
  0.4444444180000033  0.4444444180000033  0.4572308360000008   F   F   F
  0.7777776719999991  0.4444444180000033  0.4572308360000008   F   F   F
  0.1111111270000009  0.7777776719999991  0.4572308360000008   F   F   F
  0.4444444180000033  0.7777776719999991  0.4572308360000008   F   F   F
  0.7777776719999991  0.7777776719999991  0.4572308360000008   F   F   F
  0.2129466323491424  0.2268313283226993  0.5440879579321964   T   T   T
  0.5501568331318121  0.2237037137897640  0.5414662185265979   T   T   T
  0.8855172278745259  0.2276345783670092  0.5438575699036792   T   T   T
  0.2175211216064946  0.5577966005461974  0.5417849490970253   T   T   T
  0.5516362634490127  0.5601206624821714  0.5430904323388032   T   T   T
  0.8828962430134074  0.5574929268224662  0.5440158685954380   T   T   T
  0.2168276378837214  0.8929556376429328  0.5423925307368175   T   T   T
  0.5515897527905874  0.8879296070153124  0.5443169127083544   T   T   T
  0.8833537058254198  0.8929701792922788  0.5419495221134371   T   T   T
  0.9856480063126245  0.3453385881008620  0.6402384896262114   T   T   T
  0.3221237956045740  0.3377012153151508  0.6285586285812597   T   T   T
  0.6540355454307872  0.3352334993409186  0.6270556407987045   T   T   T
  0.3205997021178555  0.6736505712712192  0.6279177188185050   T   T   T
  0.6563480250600480  0.6674200502369094  0.6370876109407166   T   T   T
  0.9884739881295133  0.6748701058740377  0.6274511312095363   T   T   T
  0.9888628664450761  0.0070532298636824  0.6289705009987019   T   T   T
  0.3205002925478404  0.0071314294174233  0.6300172961809705   T   T   T
  0.6544795315023433  0.0046252726820946  0.6291075141789689   T   T   T
  0.6257553201462337  0.4854946888465354  0.7916991585110803   T   T   T
  0.5738771425755474  0.5417108125298393  0.7367065294743884   T   T   T
  0.7120940728453907  0.5858370721042562  0.7133864510510869   T   T   T
  0.9085590533598538  0.4310939834549100  0.7173007169100148   T   T   T
  0.9264368814323493  0.2657849236994631  0.7461639291995541   T   T   T
  0.8268704034119825  0.3288212569662733  0.7970911213454035   T   T   T
  0.5307310740725492  0.4443426071025279  0.8069969679174072   T   T   T
  0.6034846040263870  0.6060632711587518  0.8132001440801105   T   T   T
  0.4340733108600304  0.6589310775920525  0.7337974538805105   T   T   T
  0.5731083975775695  0.4274271045314067  0.7168398729303243   T   T   T
  0.6968615598044516  0.7138802085684941  0.7287235191932506   T   T   T
  0.8675957943294539  0.1957739310139974  0.7251253114240869   T   T   T
  0.0718925984800657  0.1650400762094187  0.7518287453188169   T   T   T
  0.9028536012299925  0.3728398471109842  0.8212325301707283   T   T   T
  0.8326658354068270  0.2094212255014198  0.8153661001090307   T   T   T
  0.0351380459311940  0.4949561107446603  0.7387605042702982   T   T   T
  0.9980897608834238  0.5338789028748694  0.7781605293982801   T   T   T
  0.1797922555248939  0.3876819277306765  0.7372843308618240   T   T   T
  0.0197658957313347  0.6170835847086893  0.7193996801922813   T   T   T
 
  0.00000000E+00  0.00000000E+00  0.00000000E+00
  0.00000000E+00  0.00000000E+00  0.00000000E+00
  0.00000000E+00  0.00000000E+00  0.00000000E+00
  0.00000000E+00  0.00000000E+00  0.00000000E+00
  0.00000000E+00  0.00000000E+00  0.00000000E+00
  0.00000000E+00  0.00000000E+00  0.00000000E+00
  0.00000000E+00  0.00000000E+00  0.00000000E+00
  0.00000000E+00  0.00000000E+00  0.00000000E+00
  0.00000000E+00  0.00000000E+00  0.00000000E+00
  0.00000000E+00  0.00000000E+00  0.00000000E+00
  0.00000000E+00  0.00000000E+00  0.00000000E+00
  0.00000000E+00  0.00000000E+00  0.00000000E+00
  0.00000000E+00  0.00000000E+00  0.00000000E+00
  0.00000000E+00  0.00000000E+00  0.00000000E+00
  0.00000000E+00  0.00000000E+00  0.00000000E+00
  0.00000000E+00  0.00000000E+00  0.00000000E+00
  0.00000000E+00  0.00000000E+00  0.00000000E+00
  0.00000000E+00  0.00000000E+00  0.00000000E+00
  0.00000000E+00  0.00000000E+00  0.00000000E+00
  0.00000000E+00  0.00000000E+00  0.00000000E+00
  0.00000000E+00  0.00000000E+00  0.00000000E+00
  0.00000000E+00  0.00000000E+00  0.00000000E+00
  0.00000000E+00  0.00000000E+00  0.00000000E+00
  0.00000000E+00  0.00000000E+00  0.00000000E+00
  0.00000000E+00  0.00000000E+00  0.00000000E+00
  0.00000000E+00  0.00000000E+00  0.00000000E+00
  0.00000000E+00  0.00000000E+00  0.00000000E+00
  0.00000000E+00  0.00000000E+00  0.00000000E+00
  0.00000000E+00  0.00000000E+00  0.00000000E+00
  0.00000000E+00  0.00000000E+00  0.00000000E+00
  0.00000000E+00  0.00000000E+00  0.00000000E+00
  0.00000000E+00  0.00000000E+00  0.00000000E+00
  0.00000000E+00  0.00000000E+00  0.00000000E+00
  0.00000000E+00  0.00000000E+00  0.00000000E+00
  0.00000000E+00  0.00000000E+00  0.00000000E+00
  0.00000000E+00  0.00000000E+00  0.00000000E+00
  0.00000000E+00  0.00000000E+00  0.00000000E+00
  0.00000000E+00  0.00000000E+00  0.00000000E+00
  0.00000000E+00  0.00000000E+00  0.00000000E+00
  0.00000000E+00  0.00000000E+00  0.00000000E+00
  0.00000000E+00  0.00000000E+00  0.00000000E+00
  0.00000000E+00  0.00000000E+00  0.00000000E+00
  0.00000000E+00  0.00000000E+00  0.00000000E+00
  0.00000000E+00  0.00000000E+00  0.00000000E+00
  0.00000000E+00  0.00000000E+00  0.00000000E+00
  0.00000000E+00  0.00000000E+00  0.00000000E+00
  0.00000000E+00  0.00000000E+00  0.00000000E+00
  0.00000000E+00  0.00000000E+00  0.00000000E+00
  0.00000000E+00  0.00000000E+00  0.00000000E+00
  0.00000000E+00  0.00000000E+00  0.00000000E+00
  0.00000000E+00  0.00000000E+00  0.00000000E+00
  0.00000000E+00  0.00000000E+00  0.00000000E+00
  0.00000000E+00  0.00000000E+00  0.00000000E+00
  0.00000000E+00  0.00000000E+00  0.00000000E+00
  0.00000000E+00  0.00000000E+00  0.00000000E+00
