Pt C H C H						                        
   1.00000000000000     
     8.4555826189999994    0.0000000000000000    0.0000000000000000
     4.2277917970000001    7.3227490700000004    0.0000000000000000
     0.0000000000000000    0.0000000000000000   26.9039554599999988
   Pt   C    H    C    H 
    36     6     9     1     3
Selective dynamics
Direct
  0.0000000000000000  0.0000000000000000  0.3716925379999978   F   F   F
  0.3333332839999983  0.0000000000000000  0.3716925379999978   F   F   F
  0.6666666870000029  0.0000000000000000  0.3716925379999978   F   F   F
  0.0000000000000000  0.3333333129999971  0.3716925379999978   F   F   F
  0.3333333429999996  0.3333333129999971  0.3716925379999978   F   F   F
  0.6666666269999979  0.3333333129999971  0.3716925379999978   F   F   F
  0.0000000000756799  0.6666666269999979  0.3716925379999978   F   F   F
  0.3333333129999971  0.6666666269999979  0.3716925379999978   F   F   F
  0.6666666870000029  0.6666666269999979  0.3716925379999978   F   F   F
  0.1111110969999984  0.1111111270000009  0.4572308360000008   F   F   F
  0.4444444479999987  0.1111111270000009  0.4572308360000008   F   F   F
  0.7777777310000005  0.1111111270000009  0.4572308360000008   F   F   F
  0.1111111270000009  0.4444444180000033  0.4572308360000008   F   F   F
  0.4444444180000033  0.4444444180000033  0.4572308360000008   F   F   F
  0.7777776719999991  0.4444444180000033  0.4572308360000008   F   F   F
  0.1111111270000009  0.7777776719999991  0.4572308360000008   F   F   F
  0.4444444180000033  0.7777776719999991  0.4572308360000008   F   F   F
  0.7777776719999991  0.7777776719999991  0.4572308360000008   F   F   F
  0.2138813003903862  0.2262626173908392  0.5441786002637520   T   T   T
  0.5503856523298749  0.2239949919435109  0.5417385876248536   T   T   T
  0.8849622149915048  0.2275183571060275  0.5440783510297409   T   T   T
  0.2170983568655192  0.5578345267635516  0.5421444389656064   T   T   T
  0.5516529250810467  0.5596749083791198  0.5434504166365747   T   T   T
  0.8831420199510853  0.5579378758948907  0.5443205720851104   T   T   T
  0.2169251142431724  0.8932047391727084  0.5428908541693873   T   T   T
  0.5510476532301666  0.8889485346646390  0.5442966054914101   T   T   T
  0.8833250208536804  0.8924143602571978  0.5423281731571170   T   T   T
 -0.0141356587298804  0.3452529950681604  0.6400972239254474   T   T   T
  0.3216705775315583  0.3380410990113078  0.6283219165059871   T   T   T
  0.6542149832138856  0.3357467858119181  0.6267641672555171   T   T   T
  0.3213156933542069  0.6731186473896716  0.6275631303170213   T   T   T
  0.6559990278070069  0.6682448710544080  0.6370784749931667   T   T   T
 -0.0119017022779931  0.6746796674199953  0.6272556425586560   T   T   T
 -0.0116711109178102  0.0077082439249715  0.6285919535808645   T   T   T
  0.3207132467090343  0.0072473824817501  0.6297182115795963   T   T   T
  0.6546173182483621  0.0042705892028165  0.6288028594636311   T   T   T
  0.6256171190033736  0.4854186550539522  0.7916768721687423   T   T   T
  0.5737365764925000  0.5415255533578286  0.7366712667272182   T   T   T
  0.7120970579140259  0.5855852813100744  0.7133210242511804   T   T   T
  0.9085884089697551  0.4306699290619587  0.7172439601863664   T   T   T
  0.9264970068625178  0.2655717849152871  0.7461982189947167   T   T   T
  0.8268144664933895  0.3290820253773635  0.7970513065528708   T   T   T
  0.5304306873953279  0.4446461444350855  0.8070904604009065   T   T   T
  0.6032857236643148  0.6057419330076024  0.8133455231126264   T   T   T
  0.4337929626850502  0.6584764685587811  0.7337889620303784   T   T   T
  0.5730780253073197  0.4271826956371030  0.7168177193495604   T   T   T
  0.6965606546273096  0.7136880612213411  0.7287485097644004   T   T   T
  0.8678378877080061  0.1955191976113686  0.7251693187694122   T   T   T
  0.0719090225246587  0.1652551964402268  0.7518909342205861   T   T   T
  0.9027052852083564  0.3732395848305217  0.8211810887454365   T   T   T
  0.8324278470334417  0.2099456309617657  0.8154333237294172   T   T   T
  0.0348769313825249  0.4950208947503761  0.7387572448403585   T   T   T
 -0.0020622972695278  0.5342153337335521  0.7781848237648811   T   T   T
  0.1797180271198567  0.3879037081867334  0.7374387350967123   T   T   T
  0.0197088200459224  0.6173041778902797  0.7194651842175124   T   T   T
 
  0.00000000E+00  0.00000000E+00  0.00000000E+00
  0.00000000E+00  0.00000000E+00  0.00000000E+00
  0.00000000E+00  0.00000000E+00  0.00000000E+00
  0.00000000E+00  0.00000000E+00  0.00000000E+00
  0.00000000E+00  0.00000000E+00  0.00000000E+00
  0.00000000E+00  0.00000000E+00  0.00000000E+00
  0.00000000E+00  0.00000000E+00  0.00000000E+00
  0.00000000E+00  0.00000000E+00  0.00000000E+00
  0.00000000E+00  0.00000000E+00  0.00000000E+00
  0.00000000E+00  0.00000000E+00  0.00000000E+00
  0.00000000E+00  0.00000000E+00  0.00000000E+00
  0.00000000E+00  0.00000000E+00  0.00000000E+00
  0.00000000E+00  0.00000000E+00  0.00000000E+00
  0.00000000E+00  0.00000000E+00  0.00000000E+00
  0.00000000E+00  0.00000000E+00  0.00000000E+00
  0.00000000E+00  0.00000000E+00  0.00000000E+00
  0.00000000E+00  0.00000000E+00  0.00000000E+00
  0.00000000E+00  0.00000000E+00  0.00000000E+00
  0.00000000E+00  0.00000000E+00  0.00000000E+00
  0.00000000E+00  0.00000000E+00  0.00000000E+00
  0.00000000E+00  0.00000000E+00  0.00000000E+00
  0.00000000E+00  0.00000000E+00  0.00000000E+00
  0.00000000E+00  0.00000000E+00  0.00000000E+00
  0.00000000E+00  0.00000000E+00  0.00000000E+00
  0.00000000E+00  0.00000000E+00  0.00000000E+00
  0.00000000E+00  0.00000000E+00  0.00000000E+00
  0.00000000E+00  0.00000000E+00  0.00000000E+00
  0.00000000E+00  0.00000000E+00  0.00000000E+00
  0.00000000E+00  0.00000000E+00  0.00000000E+00
  0.00000000E+00  0.00000000E+00  0.00000000E+00
  0.00000000E+00  0.00000000E+00  0.00000000E+00
  0.00000000E+00  0.00000000E+00  0.00000000E+00
  0.00000000E+00  0.00000000E+00  0.00000000E+00
  0.00000000E+00  0.00000000E+00  0.00000000E+00
  0.00000000E+00  0.00000000E+00  0.00000000E+00
  0.00000000E+00  0.00000000E+00  0.00000000E+00
  0.00000000E+00  0.00000000E+00  0.00000000E+00
  0.00000000E+00  0.00000000E+00  0.00000000E+00
  0.00000000E+00  0.00000000E+00  0.00000000E+00
  0.00000000E+00  0.00000000E+00  0.00000000E+00
  0.00000000E+00  0.00000000E+00  0.00000000E+00
  0.00000000E+00  0.00000000E+00  0.00000000E+00
  0.00000000E+00  0.00000000E+00  0.00000000E+00
  0.00000000E+00  0.00000000E+00  0.00000000E+00
  0.00000000E+00  0.00000000E+00  0.00000000E+00
  0.00000000E+00  0.00000000E+00  0.00000000E+00
  0.00000000E+00  0.00000000E+00  0.00000000E+00
  0.00000000E+00  0.00000000E+00  0.00000000E+00
  0.00000000E+00  0.00000000E+00  0.00000000E+00
  0.00000000E+00  0.00000000E+00  0.00000000E+00
  0.00000000E+00  0.00000000E+00  0.00000000E+00
  0.00000000E+00  0.00000000E+00  0.00000000E+00
  0.00000000E+00  0.00000000E+00  0.00000000E+00
  0.00000000E+00  0.00000000E+00  0.00000000E+00
  0.00000000E+00  0.00000000E+00  0.00000000E+00
