Pt	C	H	C	H		                            
   1.00000000000000     
     8.4555826186999994    0.0000000000000000    0.0000000000000000
     4.2277917969000001    7.3227490701000004    0.0000000000000000
     0.0000000000000000    0.0000000000000000   26.9039554595999988
   Pt   C    H 
    36     7     7
Selective dynamics
Direct
  0.0000000000000000  0.0000000000000000  0.3716925220000036   F   F   F
  0.3333332959999993  0.0000000000000000  0.3716925220000036   F   F   F
  0.6666667040000007  0.0000000000000000  0.3716925220000036   F   F   F
  0.9999999939999995  0.3333333260000018  0.3716925220000036   F   F   F
  0.3333333739999986  0.3333333260000018  0.3716925220000036   F   F   F
  0.6666666699999979  0.3333333260000018  0.3716925220000036   F   F   F
  0.9999999879999990  0.6666666509999999  0.3716925220000036   F   F   F
  0.3333333400000029  0.6666666509999999  0.3716925220000036   F   F   F
  0.6666667490000009  0.6666666509999999  0.3716925220000036   F   F   F
  0.1111110760000003  0.1111111299999976  0.4572308409999977   F   F   F
  0.4444444849999982  0.1111111299999976  0.4572308409999977   F   F   F
  0.7777777240000034  0.1111111299999976  0.4572308409999977   F   F   F
  0.1111111149999999  0.4444444230000002  0.4572308409999977   F   F   F
  0.4444444109999992  0.4444444230000002  0.4572308409999977   F   F   F
  0.7777776499999973  0.4444444230000002  0.4572308409999977   F   F   F
  0.1111111129999998  0.7777776840000001  0.4572308409999977   F   F   F
  0.4444444649999966  0.7777776840000001  0.4572308409999977   F   F   F
  0.7777776479999972  0.7777776840000001  0.4572308409999977   F   F   F
  0.2251836815587420  0.2172136296593958  0.5432987055002058   T   T   T
  0.5571684810456616  0.2212363082652450  0.5429639013965062   T   T   T
  0.8888333524348477  0.2214494298604832  0.5429745703786713   T   T   T
  0.2241362013641164  0.5544148439905779  0.5424484380208390   T   T   T
  0.5564304160938794  0.5546722784125375  0.5439625236835727   T   T   T
  0.8882391526812368  0.5547148713120120  0.5426452117056617   T   T   T
  0.2253968507369651  0.8861622810456636  0.5444871550861925   T   T   T
  0.5557532348001515  0.8859521235231220  0.5448936716358903   T   T   T
  0.8896212648715196  0.8877322975761939  0.5422059763932411   T   T   T
  0.0046931230042019  0.3309857764697579  0.6287477591643672   T   T   T
  0.3323903363784304  0.3308062186328946  0.6287591608889970   T   T   T
  0.6693725084789460  0.3293304305445533  0.6312347675002925   T   T   T
  0.3248495066413805  0.6683201675396313  0.6312566689911829   T   T   T
  0.6745303147300719  0.6680064868907272  0.6322180773101982   T   T   T
  0.0003193377683380  0.6669815581806984  0.6290390656956115   T   T   T
  0.9967405181322897  0.0002870544392738  0.6291134319800507   T   T   T
  0.3303731217487918  0.0061746694433794  0.6359150078723635   T   T   T
  0.6704880237401821  0.0002697282998003  0.6293554534393131   T   T   T
  0.4405044675820174  0.4941048735258389  0.7152169373575333   T   T   T
  0.6372504660022992  0.3942521666458488  0.7127570310188881   T   T   T
  0.3390241149755815  0.6887726197492078  0.7134281973147353   T   T   T
  0.7296492361053482  0.4988012678469761  0.7156199709932409   T   T   T
  0.4332418032460998  0.7932707196595601  0.7146664289259376   T   T   T
  0.6320380221354032  0.6933994391861579  0.7142380499354167   T   T   T
  0.3326102719949532  0.9899862953073653  0.7158013518751958   T   T   T
  0.3682626182155795  0.4199307043434348  0.7229188163507645   T   T   T
  0.7083882651624742  0.2548700917365694  0.7274118361531180   T   T   T
  0.1958781248093308  0.7585546909040963  0.7250065884707229   T   T   T
  0.8756455119075677  0.4277984354859738  0.7238828765681299   T   T   T
  0.7012685222627777  0.7665286822635521  0.7263921433408277   T   T   T
  0.4060943377476727  0.0566290364154555  0.7299418025831910   T   T   T
  0.1905212569023242  0.0532439645430553  0.7282372432384626   T   T   T
 
  0.00000000E+00  0.00000000E+00  0.00000000E+00
  0.00000000E+00  0.00000000E+00  0.00000000E+00
  0.00000000E+00  0.00000000E+00  0.00000000E+00
  0.00000000E+00  0.00000000E+00  0.00000000E+00
  0.00000000E+00  0.00000000E+00  0.00000000E+00
  0.00000000E+00  0.00000000E+00  0.00000000E+00
  0.00000000E+00  0.00000000E+00  0.00000000E+00
  0.00000000E+00  0.00000000E+00  0.00000000E+00
  0.00000000E+00  0.00000000E+00  0.00000000E+00
  0.00000000E+00  0.00000000E+00  0.00000000E+00
  0.00000000E+00  0.00000000E+00  0.00000000E+00
  0.00000000E+00  0.00000000E+00  0.00000000E+00
  0.00000000E+00  0.00000000E+00  0.00000000E+00
  0.00000000E+00  0.00000000E+00  0.00000000E+00
  0.00000000E+00  0.00000000E+00  0.00000000E+00
  0.00000000E+00  0.00000000E+00  0.00000000E+00
  0.00000000E+00  0.00000000E+00  0.00000000E+00
  0.00000000E+00  0.00000000E+00  0.00000000E+00
  0.00000000E+00  0.00000000E+00  0.00000000E+00
  0.00000000E+00  0.00000000E+00  0.00000000E+00
  0.00000000E+00  0.00000000E+00  0.00000000E+00
  0.00000000E+00  0.00000000E+00  0.00000000E+00
  0.00000000E+00  0.00000000E+00  0.00000000E+00
  0.00000000E+00  0.00000000E+00  0.00000000E+00
  0.00000000E+00  0.00000000E+00  0.00000000E+00
  0.00000000E+00  0.00000000E+00  0.00000000E+00
  0.00000000E+00  0.00000000E+00  0.00000000E+00
  0.00000000E+00  0.00000000E+00  0.00000000E+00
  0.00000000E+00  0.00000000E+00  0.00000000E+00
  0.00000000E+00  0.00000000E+00  0.00000000E+00
  0.00000000E+00  0.00000000E+00  0.00000000E+00
  0.00000000E+00  0.00000000E+00  0.00000000E+00
  0.00000000E+00  0.00000000E+00  0.00000000E+00
  0.00000000E+00  0.00000000E+00  0.00000000E+00
  0.00000000E+00  0.00000000E+00  0.00000000E+00
  0.00000000E+00  0.00000000E+00  0.00000000E+00
  0.00000000E+00  0.00000000E+00  0.00000000E+00
  0.00000000E+00  0.00000000E+00  0.00000000E+00
  0.00000000E+00  0.00000000E+00  0.00000000E+00
  0.00000000E+00  0.00000000E+00  0.00000000E+00
  0.00000000E+00  0.00000000E+00  0.00000000E+00
  0.00000000E+00  0.00000000E+00  0.00000000E+00
  0.00000000E+00  0.00000000E+00  0.00000000E+00
  0.00000000E+00  0.00000000E+00  0.00000000E+00
  0.00000000E+00  0.00000000E+00  0.00000000E+00
  0.00000000E+00  0.00000000E+00  0.00000000E+00
  0.00000000E+00  0.00000000E+00  0.00000000E+00
  0.00000000E+00  0.00000000E+00  0.00000000E+00
  0.00000000E+00  0.00000000E+00  0.00000000E+00
  0.00000000E+00  0.00000000E+00  0.00000000E+00
