Pt	C	H	C	H		                            
   1.00000000000000     
     8.4555826186999994    0.0000000000000000    0.0000000000000000
     4.2277917969000001    7.3227490701000004    0.0000000000000000
     0.0000000000000000    0.0000000000000000   26.9039554595999988
   Pt   C    H 
    36     7     7
Selective dynamics
Direct
  0.0000000000000000  0.0000000000000000  0.3716925220000036   F   F   F
  0.3333332959999993  0.0000000000000000  0.3716925220000036   F   F   F
  0.6666667040000007  0.0000000000000000  0.3716925220000036   F   F   F
  0.9999999939999995  0.3333333260000018  0.3716925220000036   F   F   F
  0.3333333739999986  0.3333333260000018  0.3716925220000036   F   F   F
  0.6666666699999979  0.3333333260000018  0.3716925220000036   F   F   F
  0.9999999879999990  0.6666666509999999  0.3716925220000036   F   F   F
  0.3333333400000029  0.6666666509999999  0.3716925220000036   F   F   F
  0.6666667490000009  0.6666666509999999  0.3716925220000036   F   F   F
  0.1111110760000003  0.1111111299999976  0.4572308409999977   F   F   F
  0.4444444849999982  0.1111111299999976  0.4572308409999977   F   F   F
  0.7777777240000034  0.1111111299999976  0.4572308409999977   F   F   F
  0.1111111149999999  0.4444444230000002  0.4572308409999977   F   F   F
  0.4444444109999992  0.4444444230000002  0.4572308409999977   F   F   F
  0.7777776499999973  0.4444444230000002  0.4572308409999977   F   F   F
  0.1111111129999998  0.7777776840000001  0.4572308409999977   F   F   F
  0.4444444649999966  0.7777776840000001  0.4572308409999977   F   F   F
  0.7777776479999972  0.7777776840000001  0.4572308409999977   F   F   F
  0.2251697094203941  0.2172473981332175  0.5433221348972158   T   T   T
  0.5571095215205791  0.2212477933115700  0.5429837281997726   T   T   T
  0.8888826050246164  0.2214633486010092  0.5429948567484819   T   T   T
  0.2241530726340661  0.5543826976849854  0.5424665174630183   T   T   T
  0.5564096230178786  0.5547113681764432  0.5439657466588261   T   T   T
  0.8882699185622664  0.5546769741462380  0.5426614275256318   T   T   T
  0.2254138588985399  0.8861582926561337  0.5444956611227693   T   T   T
  0.5557368196937853  0.8859581765704736  0.5448985484504784   T   T   T
  0.8896164149103609  0.8877479383155311  0.5422392849404919   T   T   T
  0.0046090026717445  0.3310188875236604  0.6287567087295431   T   T   T
  0.3324455630710199  0.3308428523920143  0.6287650671366307   T   T   T
  0.6693851660443700  0.3293154059539470  0.6312302253350865   T   T   T
  0.3248762707628755  0.6682987349891870  0.6312715992589237   T   T   T
  0.6745181235777851  0.6679926846171717  0.6322375403565731   T   T   T
  0.0003283440356456  0.6669900689285541  0.6290437567636931   T   T   T
  0.9967647235414583  0.0002343972700573  0.6291214799970400   T   T   T
  0.3304249793122340  0.0060937064301671  0.6359256125023786   T   T   T
  0.6705256943263798  0.0002267899280694  0.6293651239851615   T   T   T
  0.4404817189764145  0.4940939093601756  0.7151915649084367   T   T   T
  0.6372518534247940  0.3941828696342564  0.7127607234016546   T   T   T
  0.3390182890032113  0.6887679127071797  0.7134300228140349   T   T   T
  0.7296412758373284  0.4988652237451288  0.7155974306833460   T   T   T
  0.4333001580779301  0.7932639472689402  0.7146277971737840   T   T   T
  0.6320275423594401  0.6934217688139498  0.7142444423516332   T   T   T
  0.3325818738039900  0.9900283372567121  0.7157957204790861   T   T   T
  0.3682629274211344  0.4199166156366211  0.7229144627776548   T   T   T
  0.7083830147476905  0.2548735740202267  0.7274182820569862   T   T   T
  0.1958603654297565  0.7585549486048597  0.7250127396675651   T   T   T
  0.8756923641138241  0.4277649116836666  0.7238866362134208   T   T   T
  0.7012476661427549  0.7665003574765844  0.7263998760043887   T   T   T
  0.4060858328018901  0.0566046488363404  0.7299486243441171   T   T   T
  0.1905265221075073  0.0532320873322944  0.7282368597448612   T   T   T
 
  0.00000000E+00  0.00000000E+00  0.00000000E+00
  0.00000000E+00  0.00000000E+00  0.00000000E+00
  0.00000000E+00  0.00000000E+00  0.00000000E+00
  0.00000000E+00  0.00000000E+00  0.00000000E+00
  0.00000000E+00  0.00000000E+00  0.00000000E+00
  0.00000000E+00  0.00000000E+00  0.00000000E+00
  0.00000000E+00  0.00000000E+00  0.00000000E+00
  0.00000000E+00  0.00000000E+00  0.00000000E+00
  0.00000000E+00  0.00000000E+00  0.00000000E+00
  0.00000000E+00  0.00000000E+00  0.00000000E+00
  0.00000000E+00  0.00000000E+00  0.00000000E+00
  0.00000000E+00  0.00000000E+00  0.00000000E+00
  0.00000000E+00  0.00000000E+00  0.00000000E+00
  0.00000000E+00  0.00000000E+00  0.00000000E+00
  0.00000000E+00  0.00000000E+00  0.00000000E+00
  0.00000000E+00  0.00000000E+00  0.00000000E+00
  0.00000000E+00  0.00000000E+00  0.00000000E+00
  0.00000000E+00  0.00000000E+00  0.00000000E+00
  0.00000000E+00  0.00000000E+00  0.00000000E+00
  0.00000000E+00  0.00000000E+00  0.00000000E+00
  0.00000000E+00  0.00000000E+00  0.00000000E+00
  0.00000000E+00  0.00000000E+00  0.00000000E+00
  0.00000000E+00  0.00000000E+00  0.00000000E+00
  0.00000000E+00  0.00000000E+00  0.00000000E+00
  0.00000000E+00  0.00000000E+00  0.00000000E+00
  0.00000000E+00  0.00000000E+00  0.00000000E+00
  0.00000000E+00  0.00000000E+00  0.00000000E+00
  0.00000000E+00  0.00000000E+00  0.00000000E+00
  0.00000000E+00  0.00000000E+00  0.00000000E+00
  0.00000000E+00  0.00000000E+00  0.00000000E+00
  0.00000000E+00  0.00000000E+00  0.00000000E+00
  0.00000000E+00  0.00000000E+00  0.00000000E+00
  0.00000000E+00  0.00000000E+00  0.00000000E+00
  0.00000000E+00  0.00000000E+00  0.00000000E+00
  0.00000000E+00  0.00000000E+00  0.00000000E+00
  0.00000000E+00  0.00000000E+00  0.00000000E+00
  0.00000000E+00  0.00000000E+00  0.00000000E+00
  0.00000000E+00  0.00000000E+00  0.00000000E+00
  0.00000000E+00  0.00000000E+00  0.00000000E+00
  0.00000000E+00  0.00000000E+00  0.00000000E+00
  0.00000000E+00  0.00000000E+00  0.00000000E+00
  0.00000000E+00  0.00000000E+00  0.00000000E+00
  0.00000000E+00  0.00000000E+00  0.00000000E+00
  0.00000000E+00  0.00000000E+00  0.00000000E+00
  0.00000000E+00  0.00000000E+00  0.00000000E+00
  0.00000000E+00  0.00000000E+00  0.00000000E+00
  0.00000000E+00  0.00000000E+00  0.00000000E+00
  0.00000000E+00  0.00000000E+00  0.00000000E+00
  0.00000000E+00  0.00000000E+00  0.00000000E+00
  0.00000000E+00  0.00000000E+00  0.00000000E+00
