Pt  C  H                                
    1.000000000000000     
     8.4555826186999994    0.0000000000000000    0.0000000000000000
     4.2277917969000001    7.3227490701000004    0.0000000000000000
     0.0000000000000000    0.0000000000000000   26.9039554595999988
   Pt   C    H    C    H 
    36     6    10     1     3
Selective dynamics
Direct
  0.0000000000000000  0.0000000000000000  0.3716925570000029   F   F   F
  0.3333336339999988  0.0000000000000000  0.3716925570000029   F   F   F
  0.6666672679999976  0.0000000000000000  0.3716925570000029   F   F   F
  0.0000000014007497  0.3333338469999987  0.3716925570000029   F   F   F
  0.3333328880000010  0.3333338469999987  0.3716925570000029   F   F   F
  0.6666665219999999  0.3333338469999987  0.3716925570000029   F   F   F
  0.0000000099167821  0.6666663250000013  0.3716925570000029   F   F   F
  0.3333340670000027  0.6666663250000013  0.3716925570000029   F   F   F
  0.6666664600000018  0.6666663250000013  0.3716925570000029   F   F   F
  0.1111105800000018  0.1111112769999991  0.4572309120000000   F   F   F
  0.4444441859999984  0.1111112769999991  0.4572309120000000   F   F   F
  0.7777777639999996  0.1111112769999991  0.4572309120000000   F   F   F
  0.1111117390000018  0.4444437390000004  0.4572309120000000   F   F   F
  0.4444441890000022  0.4444437390000004  0.4572309120000000   F   F   F
  0.7777777659999998  0.4444437390000004  0.4572309120000000   F   F   F
  0.1111110089999983  0.7777775530000000  0.4572309120000000   F   F   F
  0.4444446429999971  0.7777775530000000  0.4572309120000000   F   F   F
  0.7777782770000030  0.7777775530000000  0.4572309120000000   F   F   F
  0.2172639839999988  0.2280305820000024  0.5418158000000020   F   F   F
  0.5518139830000024  0.2304682810000003  0.5440085390000036   F   F   F
  0.8806534429999999  0.2304808989999998  0.5442614179999978   F   F   F
  0.2171464010000008  0.5618539179999971  0.5419492400000010   F   F   F
  0.5520364619999967  0.5593269350000014  0.5438588159999966   F   F   F
  0.8838868109999964  0.5618894349999977  0.5421592710000027   F   F   F
  0.2163655840000018  0.8963172679999971  0.5418955330000017   F   F   F
  0.5504706310000032  0.8956711109999986  0.5421042950000015   F   F   F
  0.8836868129999971  0.8959765210000015  0.5423254800000024   F   F   F
  0.9904486900000009  0.3461674240000008  0.6287123829999999   F   F   F
  0.3222805509999986  0.3459060559999969  0.6281960929999997   F   F   F
  0.6545250309999986  0.3496733200000008  0.6402315260000009   F   F   F
  0.3213555239999977  0.6834305189999981  0.6275284029999995   F   F   F
  0.6562348920000005  0.6813329760000002  0.6285499110000003   F   F   F
  0.9889986479999990  0.6807376470000008  0.6285788040000000   F   F   F
  0.9886431830000006  0.0148241010000021  0.6294603440000017   F   F   F
  0.3225513679999992  0.0142341390000027  0.6291224679999985   F   F   F
  0.6560751530000033  0.0137345289999971  0.6289309840000001   F   F   F
  0.4455163997646024  0.3114188901238371  0.8078581609227963   T   T   T
  0.3869204073025954  0.5048551154251394  0.7896211553875625   T   T   T
  0.4296871355914395  0.5006417367646405  0.7335170147447937   T   T   T
  0.6314361363777419  0.3706754599008288  0.7210214765024640   T   T   T
  0.6944833467277914  0.1783792478175580  0.7412988363845069   T   T   T
  0.6488262680139657  0.1809422259447095  0.7973463415190243   T   T   T
  0.4569036993681604  0.5631852126053766  0.8110746822045366   T   T   T
  0.2389457538724195  0.5968526146602264  0.7949190816085698   T   T   T
  0.3869096946438498  0.6405579596070805  0.7204094893800312   T   T   T
  0.6246883850812166  0.1168888194831943  0.7209217209653825   T   T   T
  0.8423684478489106  0.0891641849837880  0.7351728049118385   T   T   T
  0.7322702273101126  0.2213634925408636  0.8197341642225630   T   T   T
  0.6883387458283091  0.0405441520430975  0.8085902419223693   T   T   T
  0.3439773850015284  0.4550975385713052  0.7140316369952285   T   T   T
  0.3632418567983274  0.2618695873823482  0.7883814852156948   T   T   T
  0.4171108607404182  0.3127877667874581  0.8479073852696059   T   T   T
  0.7531604042527947  0.4453803688978663  0.7389605444095116   T   T   T
  0.7510485886477752  0.4522283403446678  0.7800419098968345   T   T   T
  0.7053923253710798  0.5847171577981851  0.7249990742319095   T   T   T
  0.8961179448850490  0.3575789725359697  0.7273238565047597   T   T   T
 
  0.00000000E+00  0.00000000E+00  0.00000000E+00
  0.00000000E+00  0.00000000E+00  0.00000000E+00
  0.00000000E+00  0.00000000E+00  0.00000000E+00
  0.00000000E+00  0.00000000E+00  0.00000000E+00
  0.00000000E+00  0.00000000E+00  0.00000000E+00
  0.00000000E+00  0.00000000E+00  0.00000000E+00
  0.00000000E+00  0.00000000E+00  0.00000000E+00
  0.00000000E+00  0.00000000E+00  0.00000000E+00
  0.00000000E+00  0.00000000E+00  0.00000000E+00
  0.00000000E+00  0.00000000E+00  0.00000000E+00
  0.00000000E+00  0.00000000E+00  0.00000000E+00
  0.00000000E+00  0.00000000E+00  0.00000000E+00
  0.00000000E+00  0.00000000E+00  0.00000000E+00
  0.00000000E+00  0.00000000E+00  0.00000000E+00
  0.00000000E+00  0.00000000E+00  0.00000000E+00
  0.00000000E+00  0.00000000E+00  0.00000000E+00
  0.00000000E+00  0.00000000E+00  0.00000000E+00
  0.00000000E+00  0.00000000E+00  0.00000000E+00
  0.00000000E+00  0.00000000E+00  0.00000000E+00
  0.00000000E+00  0.00000000E+00  0.00000000E+00
  0.00000000E+00  0.00000000E+00  0.00000000E+00
  0.00000000E+00  0.00000000E+00  0.00000000E+00
  0.00000000E+00  0.00000000E+00  0.00000000E+00
  0.00000000E+00  0.00000000E+00  0.00000000E+00
  0.00000000E+00  0.00000000E+00  0.00000000E+00
  0.00000000E+00  0.00000000E+00  0.00000000E+00
  0.00000000E+00  0.00000000E+00  0.00000000E+00
  0.00000000E+00  0.00000000E+00  0.00000000E+00
  0.00000000E+00  0.00000000E+00  0.00000000E+00
  0.00000000E+00  0.00000000E+00  0.00000000E+00
  0.00000000E+00  0.00000000E+00  0.00000000E+00
  0.00000000E+00  0.00000000E+00  0.00000000E+00
  0.00000000E+00  0.00000000E+00  0.00000000E+00
  0.00000000E+00  0.00000000E+00  0.00000000E+00
  0.00000000E+00  0.00000000E+00  0.00000000E+00
  0.00000000E+00  0.00000000E+00  0.00000000E+00
  0.00000000E+00  0.00000000E+00  0.00000000E+00
  0.00000000E+00  0.00000000E+00  0.00000000E+00
  0.00000000E+00  0.00000000E+00  0.00000000E+00
  0.00000000E+00  0.00000000E+00  0.00000000E+00
  0.00000000E+00  0.00000000E+00  0.00000000E+00
  0.00000000E+00  0.00000000E+00  0.00000000E+00
  0.00000000E+00  0.00000000E+00  0.00000000E+00
  0.00000000E+00  0.00000000E+00  0.00000000E+00
  0.00000000E+00  0.00000000E+00  0.00000000E+00
  0.00000000E+00  0.00000000E+00  0.00000000E+00
  0.00000000E+00  0.00000000E+00  0.00000000E+00
  0.00000000E+00  0.00000000E+00  0.00000000E+00
  0.00000000E+00  0.00000000E+00  0.00000000E+00
  0.00000000E+00  0.00000000E+00  0.00000000E+00
  0.00000000E+00  0.00000000E+00  0.00000000E+00
  0.00000000E+00  0.00000000E+00  0.00000000E+00
  0.00000000E+00  0.00000000E+00  0.00000000E+00
  0.00000000E+00  0.00000000E+00  0.00000000E+00
  0.00000000E+00  0.00000000E+00  0.00000000E+00
  0.00000000E+00  0.00000000E+00  0.00000000E+00
