Pt                                      
   1.00000000000000     
     8.4555826189999994    0.0000000000000000    0.0000000000000000
     4.2277917970000001    7.3227490700000004    0.0000000000000000
     0.0000000000000000    0.0000000000000000   26.9039554599999988
   Pt   C    H    C    H 
    36     6     5     1     3
Selective dynamics
Direct
  0.0000000000000000  0.0000000000000000  0.3716925379999978   F   F   F
  0.3333332839999983  0.0000000000000000  0.3716925379999978   F   F   F
  0.6666666870000029  0.0000000000000000  0.3716925379999978   F   F   F
  0.0000000000000000  0.3333333129999971  0.3716925379999978   F   F   F
  0.3333333429999996  0.3333333129999971  0.3716925379999978   F   F   F
  0.6666666269999979  0.3333333129999971  0.3716925379999978   F   F   F
  0.0000000000000000  0.6666666269999979  0.3716925379999978   F   F   F
  0.3333333129999971  0.6666666269999979  0.3716925379999978   F   F   F
  0.6666666870000029  0.6666666269999979  0.3716925379999978   F   F   F
  0.1111110969999984  0.1111111270000009  0.4572308360000008   F   F   F
  0.4444444479999987  0.1111111270000009  0.4572308360000008   F   F   F
  0.7777777310000005  0.1111111270000009  0.4572308360000008   F   F   F
  0.1111111270000009  0.4444444180000033  0.4572308360000008   F   F   F
  0.4444444180000033  0.4444444180000033  0.4572308360000008   F   F   F
  0.7777776719999991  0.4444444180000033  0.4572308360000008   F   F   F
  0.1111111270000009  0.7777776719999991  0.4572308360000008   F   F   F
  0.4444444180000033  0.7777776719999991  0.4572308360000008   F   F   F
  0.7777776719999991  0.7777776719999991  0.4572308360000008   F   F   F
  0.2267133774389763  0.2139527153328222  0.5426705078134318   T   T   T
  0.5574788423183801  0.2239467726114977  0.5430010889147824   T   T   T
  0.8859712637895328  0.2239367063730315  0.5430099894573954   T   T   T
  0.2249120785925376  0.5542213601710305  0.5424932177876447   T   T   T
  0.5551082100707324  0.5569595173913245  0.5441993767865388   T   T   T
  0.8880130904154817  0.5543349870832457  0.5425300143856462   T   T   T
  0.2240837999190829  0.8858552743185759  0.5440607962803826   T   T   T
  0.5572900398244957  0.8860395802480396  0.5441039616937361   T   T   T
  0.8897356460560684  0.8878121445052674  0.5415904916441494   T   T   T
  0.0096386163834342  0.3254260491485275  0.6279839044937839   T   T   T
  0.3331273726452772  0.3252518506185707  0.6279826602964255   T   T   T
  0.6654465636783423  0.3383974143110972  0.6343423830435894   T   T   T
  0.3227210122792438  0.6662678115193154  0.6321985943063402   T   T   T
  0.6788583875438898  0.6672154958157723  0.6322003717904342   T   T   T
  0.0013434215705456  0.6655656815668598  0.6279279647689984   T   T   T
  0.9933167315490548  0.0053005447833734  0.6279036552737155   T   T   T
  0.3363474682021838  0.9947436216671335  0.6355186891226947   T   T   T
  0.6694924683415381  0.0057359246853689  0.6279278039851457   T   T   T
  0.4080454612830146  0.5609853092005953  0.7096666473344689   T   T   T
  0.6105594384833107  0.4503576097061969  0.7094879112180127   T   T   T
  0.3086482775150215  0.7567738401261748  0.7102423327101066   T   T   T
  0.6996375708882596  0.5636924278708128  0.7095659561854327   T   T   T
  0.3992481218329684  0.8673353567180595  0.7090343972823595   T   T   T
  0.6004361909824232  0.7594465976402441  0.7102858442626470   T   T   T
  0.3354944230989247  0.4903133650600830  0.7211606415394655   T   T   T
  0.1658529298811944  0.8249857282251234  0.7219787631924929   T   T   T
  0.8427011581159009  0.4951269394054055  0.7211880464386679   T   T   T
  0.3368320009822595  0.9903296533008817  0.7323785508729881   T   T   T
  0.6730254849019874  0.8297951020260863  0.7219218372078322   T   T   T
  0.6927236598629536  0.2901202031910006  0.7459523459067934   T   T   T
  0.8410344851151498  0.2053772867027714  0.7402594422061403   T   T   T
  0.6315966017448856  0.2029268850408036  0.7408914846813162   T   T   T
  0.6675477803576568  0.3421644185667683  0.7845836196773104   T   T   T
 
  0.00000000E+00  0.00000000E+00  0.00000000E+00
  0.00000000E+00  0.00000000E+00  0.00000000E+00
  0.00000000E+00  0.00000000E+00  0.00000000E+00
  0.00000000E+00  0.00000000E+00  0.00000000E+00
  0.00000000E+00  0.00000000E+00  0.00000000E+00
  0.00000000E+00  0.00000000E+00  0.00000000E+00
  0.00000000E+00  0.00000000E+00  0.00000000E+00
  0.00000000E+00  0.00000000E+00  0.00000000E+00
  0.00000000E+00  0.00000000E+00  0.00000000E+00
  0.00000000E+00  0.00000000E+00  0.00000000E+00
  0.00000000E+00  0.00000000E+00  0.00000000E+00
  0.00000000E+00  0.00000000E+00  0.00000000E+00
  0.00000000E+00  0.00000000E+00  0.00000000E+00
  0.00000000E+00  0.00000000E+00  0.00000000E+00
  0.00000000E+00  0.00000000E+00  0.00000000E+00
  0.00000000E+00  0.00000000E+00  0.00000000E+00
  0.00000000E+00  0.00000000E+00  0.00000000E+00
  0.00000000E+00  0.00000000E+00  0.00000000E+00
  0.00000000E+00  0.00000000E+00  0.00000000E+00
  0.00000000E+00  0.00000000E+00  0.00000000E+00
  0.00000000E+00  0.00000000E+00  0.00000000E+00
  0.00000000E+00  0.00000000E+00  0.00000000E+00
  0.00000000E+00  0.00000000E+00  0.00000000E+00
  0.00000000E+00  0.00000000E+00  0.00000000E+00
  0.00000000E+00  0.00000000E+00  0.00000000E+00
  0.00000000E+00  0.00000000E+00  0.00000000E+00
  0.00000000E+00  0.00000000E+00  0.00000000E+00
  0.00000000E+00  0.00000000E+00  0.00000000E+00
  0.00000000E+00  0.00000000E+00  0.00000000E+00
  0.00000000E+00  0.00000000E+00  0.00000000E+00
  0.00000000E+00  0.00000000E+00  0.00000000E+00
  0.00000000E+00  0.00000000E+00  0.00000000E+00
  0.00000000E+00  0.00000000E+00  0.00000000E+00
  0.00000000E+00  0.00000000E+00  0.00000000E+00
  0.00000000E+00  0.00000000E+00  0.00000000E+00
  0.00000000E+00  0.00000000E+00  0.00000000E+00
  0.00000000E+00  0.00000000E+00  0.00000000E+00
  0.00000000E+00  0.00000000E+00  0.00000000E+00
  0.00000000E+00  0.00000000E+00  0.00000000E+00
  0.00000000E+00  0.00000000E+00  0.00000000E+00
  0.00000000E+00  0.00000000E+00  0.00000000E+00
  0.00000000E+00  0.00000000E+00  0.00000000E+00
  0.00000000E+00  0.00000000E+00  0.00000000E+00
  0.00000000E+00  0.00000000E+00  0.00000000E+00
  0.00000000E+00  0.00000000E+00  0.00000000E+00
  0.00000000E+00  0.00000000E+00  0.00000000E+00
  0.00000000E+00  0.00000000E+00  0.00000000E+00
  0.00000000E+00  0.00000000E+00  0.00000000E+00
  0.00000000E+00  0.00000000E+00  0.00000000E+00
  0.00000000E+00  0.00000000E+00  0.00000000E+00
  0.00000000E+00  0.00000000E+00  0.00000000E+00
