Electronic structure
  PREC    = ACCURATE
  ADDGRID = .TRUE.
  LREAL   = Auto
  ENCUT   = 396
  ISYM    = 0
  ISPIN   = 1
Electronic minimization
  ALGO   = Fast
  EDIFF   = 1e-6
  NELM    = 1000
  MAXMIX  = 80
  BMIX    = 4
  ISMEAR  = 2
  SIGMA   = 0.2
Density functional
  GGA      = OR
  LUSE_VDW = .TRUE.
  AGGAC    = 0.0000
Ionic relaxation
  ISIF    = 0
  EDIFFG  = -0.05
  NSW     = 1000
  IBRION  = 2
  POTIM   = 0.1
  LWAVE = .True.
Parallelization
  NPAR   = 8
Other parameters
