Pt                                      
   1.00000000000000     
     8.4555826189999994    0.0000000000000000    0.0000000000000000
     4.2277917970000001    7.3227490700000004    0.0000000000000000
     0.0000000000000000    0.0000000000000000   26.9039554599999988
   Pt   C    H    C    H 
    36     6     5     1     3
Selective dynamics
Direct
  0.0000000000000000  0.0000000000000000  0.3716925379999978   F   F   F
  0.3333332839999983  0.0000000000000000  0.3716925379999978   F   F   F
  0.6666666870000029  0.0000000000000000  0.3716925379999978   F   F   F
  0.0000000000000000  0.3333333129999971  0.3716925379999978   F   F   F
  0.3333333429999996  0.3333333129999971  0.3716925379999978   F   F   F
  0.6666666269999979  0.3333333129999971  0.3716925379999978   F   F   F
  0.0000000000000000  0.6666666269999979  0.3716925379999978   F   F   F
  0.3333333129999971  0.6666666269999979  0.3716925379999978   F   F   F
  0.6666666870000029  0.6666666269999979  0.3716925379999978   F   F   F
  0.1111110969999984  0.1111111270000009  0.4572308360000008   F   F   F
  0.4444444479999987  0.1111111270000009  0.4572308360000008   F   F   F
  0.7777777310000005  0.1111111270000009  0.4572308360000008   F   F   F
  0.1111111270000009  0.4444444180000033  0.4572308360000008   F   F   F
  0.4444444180000033  0.4444444180000033  0.4572308360000008   F   F   F
  0.7777776719999991  0.4444444180000033  0.4572308360000008   F   F   F
  0.1111111270000009  0.7777776719999991  0.4572308360000008   F   F   F
  0.4444444180000033  0.7777776719999991  0.4572308360000008   F   F   F
  0.7777776719999991  0.7777776719999991  0.4572308360000008   F   F   F
  0.2249215110089835  0.2170961265806502  0.5429836984454857   T   T   T
  0.5569124711109184  0.2230959679383536  0.5431991414037157   T   T   T
  0.8867473140485106  0.2234187040007060  0.5431214488974467   T   T   T
  0.2246277260656426  0.5551655815266398  0.5426410408056132   T   T   T
  0.5556491812467905  0.5559153675714612  0.5437013867026583   T   T   T
  0.8871960327135771  0.5555689906169604  0.5426667972097821   T   T   T
  0.2239761207087994  0.8864442295614707  0.5436163815405149   T   T   T
  0.5563007450089533  0.8866558947095187  0.5435869148069684   T   T   T
  0.8895369373976006  0.8883693232924286  0.5421192127586546   T   T   T
  0.0075673834839972  0.3279346185288924  0.6281855322990048   T   T   T
  0.3333716285611412  0.3272336002925004  0.6282439183709373   T   T   T
  0.6653494407293505  0.3378412417288622  0.6341229980791244   T   T   T
  0.3229789952401806  0.6667074572707323  0.6319790578169509   T   T   T
  0.6795045231161601  0.6670464289717918  0.6321831345545543   T   T   T
  0.0012678195333909  0.6663837139521599  0.6284581808871504   T   T   T
 -0.0053443302412594  0.0050463487681898  0.6280593245202861   T   T   T
  0.3353546327819012 -0.0035111571729551  0.6349894511642947   T   T   T
  0.6689884933293282  0.0045790324885283  0.6280664130248027   T   T   T
  0.4088588578411596  0.5599485289706290  0.7091145814640802   T   T   T
  0.6116090851041224  0.4482447502946730  0.7090798794428174   T   T   T
  0.3091105899839717  0.7562047671876608  0.7096309989733197   T   T   T
  0.6997344115688587  0.5627857833909872  0.7089159098019823   T   T   T
  0.3986538093147758  0.8681867850704229  0.7082377104016542   T   T   T
  0.6001991420812366  0.7591066444704520  0.7095791006058421   T   T   T
  0.3360221524936453  0.4901940830167307  0.7212624355466980   T   T   T
  0.1669747658854618  0.8235869260209840  0.7220283573801450   T   T   T
  0.8419770957762366  0.4953635142932233  0.7212804976153691   T   T   T
  0.3368813235494205  0.9898067103008177  0.7321117414869925   T   T   T
  0.6727822373219039  0.8287264057678779  0.7219391400780155   T   T   T
  0.6933639242320531  0.2892506145132285  0.7460892266966663   T   T   T
  0.8415377177762478  0.2046738548313257  0.7404860801063037   T   T   T
  0.6324437789090550  0.2019771974444891  0.7412010355841205   T   T   T
  0.6683716400238561  0.3410496540566892  0.7847160070965464   T   T   T
 
  0.00000000E+00  0.00000000E+00  0.00000000E+00
  0.00000000E+00  0.00000000E+00  0.00000000E+00
  0.00000000E+00  0.00000000E+00  0.00000000E+00
  0.00000000E+00  0.00000000E+00  0.00000000E+00
  0.00000000E+00  0.00000000E+00  0.00000000E+00
  0.00000000E+00  0.00000000E+00  0.00000000E+00
  0.00000000E+00  0.00000000E+00  0.00000000E+00
  0.00000000E+00  0.00000000E+00  0.00000000E+00
  0.00000000E+00  0.00000000E+00  0.00000000E+00
  0.00000000E+00  0.00000000E+00  0.00000000E+00
  0.00000000E+00  0.00000000E+00  0.00000000E+00
  0.00000000E+00  0.00000000E+00  0.00000000E+00
  0.00000000E+00  0.00000000E+00  0.00000000E+00
  0.00000000E+00  0.00000000E+00  0.00000000E+00
  0.00000000E+00  0.00000000E+00  0.00000000E+00
  0.00000000E+00  0.00000000E+00  0.00000000E+00
  0.00000000E+00  0.00000000E+00  0.00000000E+00
  0.00000000E+00  0.00000000E+00  0.00000000E+00
  0.00000000E+00  0.00000000E+00  0.00000000E+00
  0.00000000E+00  0.00000000E+00  0.00000000E+00
  0.00000000E+00  0.00000000E+00  0.00000000E+00
  0.00000000E+00  0.00000000E+00  0.00000000E+00
  0.00000000E+00  0.00000000E+00  0.00000000E+00
  0.00000000E+00  0.00000000E+00  0.00000000E+00
  0.00000000E+00  0.00000000E+00  0.00000000E+00
  0.00000000E+00  0.00000000E+00  0.00000000E+00
  0.00000000E+00  0.00000000E+00  0.00000000E+00
  0.00000000E+00  0.00000000E+00  0.00000000E+00
  0.00000000E+00  0.00000000E+00  0.00000000E+00
  0.00000000E+00  0.00000000E+00  0.00000000E+00
  0.00000000E+00  0.00000000E+00  0.00000000E+00
  0.00000000E+00  0.00000000E+00  0.00000000E+00
  0.00000000E+00  0.00000000E+00  0.00000000E+00
  0.00000000E+00  0.00000000E+00  0.00000000E+00
  0.00000000E+00  0.00000000E+00  0.00000000E+00
  0.00000000E+00  0.00000000E+00  0.00000000E+00
  0.00000000E+00  0.00000000E+00  0.00000000E+00
  0.00000000E+00  0.00000000E+00  0.00000000E+00
  0.00000000E+00  0.00000000E+00  0.00000000E+00
  0.00000000E+00  0.00000000E+00  0.00000000E+00
  0.00000000E+00  0.00000000E+00  0.00000000E+00
  0.00000000E+00  0.00000000E+00  0.00000000E+00
  0.00000000E+00  0.00000000E+00  0.00000000E+00
  0.00000000E+00  0.00000000E+00  0.00000000E+00
  0.00000000E+00  0.00000000E+00  0.00000000E+00
  0.00000000E+00  0.00000000E+00  0.00000000E+00
  0.00000000E+00  0.00000000E+00  0.00000000E+00
  0.00000000E+00  0.00000000E+00  0.00000000E+00
  0.00000000E+00  0.00000000E+00  0.00000000E+00
  0.00000000E+00  0.00000000E+00  0.00000000E+00
  0.00000000E+00  0.00000000E+00  0.00000000E+00
