Pt  C  H                                
    1.000000000000000     
     8.4555826186999994    0.0000000000000000    0.0000000000000000
     4.2277917969000001    7.3227490701000004    0.0000000000000000
     0.0000000000000000    0.0000000000000000   26.9039554595999988
   Pt   C    H    C    H 
    36     6     9     1     4
Selective dynamics
Direct
  0.0000000000000000  0.0000000000000000  0.3716925570671705   F   F   F
  0.3333336243166301  0.0000000000000000  0.3716925570671705   F   F   F
  0.6666672486332672  0.0000000000000000  0.3716925570671705   F   F   F
  0.0000004688310256  0.3333338308650582  0.3716925570671705   F   F   F
  0.3333329104970417  0.3333338308650582  0.3716925570671705   F   F   F
  0.6666665348136718  0.3333338308650582  0.3716925570671705   F   F   F
  0.0000004378151814  0.6666662961227630  0.3716925570671705   F   F   F
  0.3333340621318186  0.6666662961227630  0.3716925570671705   F   F   F
  0.6666665037978348  0.6666662961227630  0.3716925570671705   F   F   F
  0.1111105759488069  0.1111112769550218  0.4572309086101498   F   F   F
  0.4444442002654370  0.1111112769550218  0.4572309086101498   F   F   F
  0.7777778245820741  0.1111112769550218  0.4572309086101498   F   F   F
  0.1111117275835838  0.4444437422127265  0.4572309086101498   F   F   F
  0.4444441692496000  0.4444437422127265  0.4572309086101498   F   F   F
  0.7777777935662371  0.4444437422127265  0.4572309086101498   F   F   F
  0.1111110137639884  0.7777775730777847  0.4572309086101498   F   F   F
  0.4444446380806255  0.7777775730777847  0.4572309086101498   F   F   F
  0.7777782623972556  0.7777775730777847  0.4572309086101498   F   F   F
  0.2242939466073040  0.2251386158888806  0.5434968764996171   F   F   F
  0.5603654506537765  0.2237956609713336  0.5423778040309628   F   F   F
  0.8941065821689946  0.2256072942795200  0.5440370605604627   F   F   F
  0.2261623038944833  0.5572488638184936  0.5425461673379885   F   F   F
  0.5597557027096940  0.5569997372883222  0.5427839098079801   F   F   F
  0.8940918063737229  0.5551157481169255  0.5436423561733932   F   F   F
  0.2260289536427535  0.8904036893459377  0.5425533943451413   F   F   F
  0.5596862806494514  0.8905369052646748  0.5422405836711590   F   F   F
  0.8922763120785930  0.8910542454935069  0.5422018555415491   F   F   F
  0.0095976560959770  0.3376640950440830  0.6372244705928409   F   F   F
  0.3438491300401836  0.3365838911666259  0.6288045017123025   F   F   F
  0.6756289577122345  0.3365368924685583  0.6299137632826799   F   F   F
  0.3416993652607232  0.6700131693626403  0.6293971575672188   F   F   F
  0.6751137267368250  0.6705672401991905  0.6289659803010963   F   F   F
  0.0076321785787812  0.6713801386257217  0.6288705564261932   F   F   F
  0.0068195662512878  0.0039292731543341  0.6289199027039913   F   F   F
  0.3424219769440029  0.0031342200567579  0.6285429289940936   F   F   F
  0.6749304019569990  0.0038478364666119  0.6296123780090497   F   F   F
  0.9678313430507757  0.2974375928696773  0.8202691087969498   T   T   T
  0.9024893523558362  0.4863466101619451  0.7971055221880832   T   T   T
  0.8683009364197147  0.4853789474694068  0.7405489259422637   T   T   T
  0.0425488131464462  0.3407852817156183  0.7154025886785291   T   T   T
  0.1130173371845302  0.1511443420015368  0.7374217636095537   T   T   T
  0.1433081816574102  0.1553249339476537  0.7939650396441351   T   T   T
  0.0069369067891998  0.5266715114461675  0.8033776679484248   T   T   T
  0.7756096307904556  0.5909581464625902  0.8150388177525798   T   T   T
  0.8240163253047683  0.6219700753511503  0.7248552761143401   T   T   T
  0.1494839481579930  0.3791583925538262  0.7183250373012200   T   T   T
  0.0141319939858633  0.1039790708260711  0.7307711807868813   T   T   T
  0.2431801330448451  0.0505962411758532  0.7196455975299472   T   T   T
  0.2524987023921383  0.1889403630041500  0.8004562283165697   T   T   T
  0.1918875832884410  0.0177357039355641  0.8094297863753539   T   T   T
  0.7564148538532791  0.4557982333026800  0.7345087769632030   T   T   T
  0.9945402062167474  0.2973417855073492  0.8765994887081305   T   T   T
  0.8611607947311981  0.2605778750311245  0.8129681745672315   T   T   T
  0.1003228099028846  0.3325591929578309  0.8855123164004297   T   T   T
  0.0373276306835280  0.1619331131108552  0.8924784020381864   T   T   T
  0.8672428834346348  0.3970783700615925  0.8945629015915628   T   T   T
 
  0.00000000E+00  0.00000000E+00  0.00000000E+00
  0.00000000E+00  0.00000000E+00  0.00000000E+00
  0.00000000E+00  0.00000000E+00  0.00000000E+00
  0.00000000E+00  0.00000000E+00  0.00000000E+00
  0.00000000E+00  0.00000000E+00  0.00000000E+00
  0.00000000E+00  0.00000000E+00  0.00000000E+00
  0.00000000E+00  0.00000000E+00  0.00000000E+00
  0.00000000E+00  0.00000000E+00  0.00000000E+00
  0.00000000E+00  0.00000000E+00  0.00000000E+00
  0.00000000E+00  0.00000000E+00  0.00000000E+00
  0.00000000E+00  0.00000000E+00  0.00000000E+00
  0.00000000E+00  0.00000000E+00  0.00000000E+00
  0.00000000E+00  0.00000000E+00  0.00000000E+00
  0.00000000E+00  0.00000000E+00  0.00000000E+00
  0.00000000E+00  0.00000000E+00  0.00000000E+00
  0.00000000E+00  0.00000000E+00  0.00000000E+00
  0.00000000E+00  0.00000000E+00  0.00000000E+00
  0.00000000E+00  0.00000000E+00  0.00000000E+00
  0.00000000E+00  0.00000000E+00  0.00000000E+00
  0.00000000E+00  0.00000000E+00  0.00000000E+00
  0.00000000E+00  0.00000000E+00  0.00000000E+00
  0.00000000E+00  0.00000000E+00  0.00000000E+00
  0.00000000E+00  0.00000000E+00  0.00000000E+00
  0.00000000E+00  0.00000000E+00  0.00000000E+00
  0.00000000E+00  0.00000000E+00  0.00000000E+00
  0.00000000E+00  0.00000000E+00  0.00000000E+00
  0.00000000E+00  0.00000000E+00  0.00000000E+00
  0.00000000E+00  0.00000000E+00  0.00000000E+00
  0.00000000E+00  0.00000000E+00  0.00000000E+00
  0.00000000E+00  0.00000000E+00  0.00000000E+00
  0.00000000E+00  0.00000000E+00  0.00000000E+00
  0.00000000E+00  0.00000000E+00  0.00000000E+00
  0.00000000E+00  0.00000000E+00  0.00000000E+00
  0.00000000E+00  0.00000000E+00  0.00000000E+00
  0.00000000E+00  0.00000000E+00  0.00000000E+00
  0.00000000E+00  0.00000000E+00  0.00000000E+00
  0.00000000E+00  0.00000000E+00  0.00000000E+00
  0.00000000E+00  0.00000000E+00  0.00000000E+00
  0.00000000E+00  0.00000000E+00  0.00000000E+00
  0.00000000E+00  0.00000000E+00  0.00000000E+00
  0.00000000E+00  0.00000000E+00  0.00000000E+00
  0.00000000E+00  0.00000000E+00  0.00000000E+00
  0.00000000E+00  0.00000000E+00  0.00000000E+00
  0.00000000E+00  0.00000000E+00  0.00000000E+00
  0.00000000E+00  0.00000000E+00  0.00000000E+00
  0.00000000E+00  0.00000000E+00  0.00000000E+00
  0.00000000E+00  0.00000000E+00  0.00000000E+00
  0.00000000E+00  0.00000000E+00  0.00000000E+00
  0.00000000E+00  0.00000000E+00  0.00000000E+00
  0.00000000E+00  0.00000000E+00  0.00000000E+00
  0.00000000E+00  0.00000000E+00  0.00000000E+00
  0.00000000E+00  0.00000000E+00  0.00000000E+00
  0.00000000E+00  0.00000000E+00  0.00000000E+00
  0.00000000E+00  0.00000000E+00  0.00000000E+00
  0.00000000E+00  0.00000000E+00  0.00000000E+00
  0.00000000E+00  0.00000000E+00  0.00000000E+00
