Pt  C  H                                
   1.00000000000000     
     8.4555826186999994    0.0000000000000000    0.0000000000000000
     4.2277917969000001    7.3227490701000004    0.0000000000000000
     0.0000000000000000    0.0000000000000000   26.9039554595999988
   Pt    C    H C H
   36    6   9 1 4
Selective dynamics
Cartesian
0	0	10	F	F	F
2.81853	0	10	F	F	F
5.63706	0	10	F	F	F
1.40927	2.44092	10	F	F	F
4.22779	2.44092	10	F	F	F
7.04632	2.44092	10	F	F	F
2.81853	4.88183	10	F	F	F
5.63706	4.88183	10	F	F	F
8.45558	4.88183	10	F	F	F
1.40926	0.81364	12.30132	F	F	F
4.22779	0.81364	12.30132	F	F	F
7.04632	0.81364	12.30132	F	F	F
2.81853	3.25455	12.30132	F	F	F
5.63705	3.25455	12.30132	F	F	F
8.45558	3.25455	12.30132	F	F	F
4.22779	5.69547	12.30132	F	F	F
7.04632	5.69547	12.30132	F	F	F
9.86485	5.69547	12.30132	F	F	F
2.78552	1.65145	14.54374	T	T	T
5.61981	1.62604	14.6568	T	T	T
8.41412	1.65535	14.59389	T	T	T
4.21803	4.08464	14.57425	T	T	T
7.04555	4.09932	14.67096	T	T	T
9.80416	4.10147	14.63187	T	T	T
5.60347	6.50727	14.57915	T	T	T
8.43114	6.50018	14.67881	T	T	T
11.23059	6.53605	14.6008	T	T	T
9.80394	2.48158	16.90191	T	T	T
4.09981	2.47603	16.90523	T	T	T
6.93116	2.44956	16.97537	T	T	T
5.49086	4.94522	16.95049	T	T	T
8.40637	4.9561	17.36506	T	T	T
11.21906	4.89673	16.86784	T	T	T
8.37272	0.04918	16.9042	T	T	T
2.70332	0.09081	16.85738	T	T	T
5.56266	0.06765	17.06325	T	T	T
9.48305	2.19351	21.71956	T	T	T
9.7792	3.59657	21.15436	T	T	T
9.55374	3.6106	19.6366	T	T	T
10.42702	2.56704	18.92494	T	T	T
10.17351	1.1752	19.52117	T	T	T
10.40298	1.16074	21.03848	T	T	T
10.83077	3.88304	21.37643	T	T	T
9.10463	4.34513	21.6245	T	T	T
9.77605	4.61957	19.23204	T	T	T
11.50168	2.83601	19.01895	T	T	T
9.11884	0.88705	19.31721	T	T	T
10.83296	0.43306	19.02389	T	T	T
11.46824	1.39554	21.25626	T	T	T
10.18144	0.14238	21.42561	T	T	T
8.48485	3.37962	19.4327	T	T	T
9.66093	2.16758	23.2402	T	T	T
8.42202	1.9319	21.50173	T	T	T
10.70448	2.42305	23.52042	T	T	T
9.41812	1.15723	23.63369	T	T	T
8.97047	2.89707	23.71547	T	T	T

