  Pt C H                                
   1.00000000000000     
     8.4555826186999994    0.0000000000000000    0.0000000000000000
     4.2277917969000001    7.3227490701000004    0.0000000000000000
     0.0000000000000000    0.0000000000000000   26.9039554595999988
   Pt   C    H    C    H 
    36     6     7     1     3
Selective dynamics
Direct
  0.0000000000000000  0.0000000000000000  0.3716925382595306   F   F   F
  0.3333332837132588  0.0000000000000000  0.3716925382595306   F   F   F
  0.6666666865194273  0.0000000000000000  0.3716925382595306   F   F   F
  0.9999999999787050  0.3333333134364338  0.3716925382595306   F   F   F
  0.3333333432975536  0.3333333134364338  0.3716925382595306   F   F   F
  0.6666666268925425  0.3333333134364338  0.3716925382595306   F   F   F
  0.0000000000756799  0.6666666268728676  0.3716925382595306   F   F   F
  0.3333333134734602  0.6666666268728676  0.3716925382595306   F   F   F
  0.6666666865951072  0.6666666268728676  0.3716925382595306   F   F   F
  0.1111110969664892  0.1111111268747749  0.4572308361672768   F   F   F
  0.4444444477360321  0.1111111268747749  0.4572308361672768   F   F   F
  0.7777777314492909  0.1111111268747749  0.4572308361672768   F   F   F
  0.1111111268290585  0.4444444179152427  0.4572308361672768   F   F   F
  0.4444444179930116  0.4444444179152427  0.4572308361672768   F   F   F
  0.7777776717852021  0.4444444179152427  0.4572308361672768   F   F   F
  0.1111111268934764  0.7777776718112008  0.4572308361672768   F   F   F
  0.4444444179391667  0.7777776718112008  0.4572308361672768   F   F   F
  0.7777776718496270  0.7777776718112008  0.4572308361672768   F   F   F
  0.2216466759908471  0.2237818210643212  0.5458718922143930   F   F   F
  0.5549947050677275  0.2255518713718416  0.5413747525990544   F   F   F
  0.8896790510764419  0.2258251328439371  0.5428656837623009   F   F   F
  0.2218632014283912  0.5600086334055661  0.5414001632529093   F   F   F
  0.5557090871695749  0.5605182196232903  0.5414893829022986   F   F   F
  0.8926037292101086  0.5557980096820998  0.5432138684075767   F   F   F
  0.2225067728241470  0.8955060841989635  0.5446063885118591   F   F   F
  0.5525047151019606  0.8947950494797681  0.5436999178863076   F   F   F
  0.8922780385856015  0.8935034785434510  0.5431669123815652   F   F   F
  0.9938142457694781  0.3434932805070758  0.6347319613291305   F   F   F
  0.3334237993410198  0.3444352858225415  0.6273472768175523   F   F   F
  0.6626642496062587  0.3421820126550159  0.6271638402696880   F   F   F
  0.3348309919722467  0.6694883906434868  0.6274375855671224   F   F   F
  0.6707176705641444  0.6717514623621454  0.6277353507131238   F   F   F
  0.0008804395550186  0.6743126752523168  0.6293634891434223   F   F   F
  0.3435342306857336  0.0042410224442264  0.6383297583489593   F   F   F
  0.6727060689839064  0.0069535715049369  0.6277479113786981   F   F   F
  0.0013447140036860  0.0108828928849292  0.6337854502560205   F   F   F
  0.0732379986498373  0.3373949322911471  0.7452733659682735   T   T   T
  0.2813009179408681  0.2363149970723200  0.7384719235475146   T   T   T
  0.3635080162652713  0.0377618253446030  0.7224647953608851   T   T   T
  0.9729002055222296  0.2771426141840223  0.7096475973257768   T   T   T
  0.2478546475464398  0.9628441969661523  0.7132968951687744   T   T   T
  0.0475598083399049  0.0740912575398553  0.7080605384766301   T   T   T
  0.0169998330672314  0.4860568895287400  0.7425384024508901   T   T   T
  0.0421502793314517  0.3097975881107189  0.7833292034725758   T   T   T
  0.3473228129982857  0.2378937773423289  0.7737711696007636   T   T   T
  0.3206620534438898  0.3110030872062524  0.7115895719166829   T   T   T
  0.8256815752742881  0.3497262106730830  0.7176018616948809   T   T   T
  0.3050361220857880  0.8159032347004995  0.7192836886671827   T   T   T
  0.9711811824249992  0.0219616564134526  0.7290397502177584   T   T   T
  0.5549986540811744  0.9130305046020197  0.7417474114287117   T   T   T
  0.6484012622415705  0.9621612820603715  0.7305137637003511   T   T   T
  0.6119164950634683  0.7720091604656218  0.7282733768514476   T   T   T
  0.5502482257979011  0.9135287353561453  0.7823076096891910   T   T   T
 
  0.00000000E+00  0.00000000E+00  0.00000000E+00
  0.00000000E+00  0.00000000E+00  0.00000000E+00
  0.00000000E+00  0.00000000E+00  0.00000000E+00
  0.00000000E+00  0.00000000E+00  0.00000000E+00
  0.00000000E+00  0.00000000E+00  0.00000000E+00
  0.00000000E+00  0.00000000E+00  0.00000000E+00
  0.00000000E+00  0.00000000E+00  0.00000000E+00
  0.00000000E+00  0.00000000E+00  0.00000000E+00
  0.00000000E+00  0.00000000E+00  0.00000000E+00
  0.00000000E+00  0.00000000E+00  0.00000000E+00
  0.00000000E+00  0.00000000E+00  0.00000000E+00
  0.00000000E+00  0.00000000E+00  0.00000000E+00
  0.00000000E+00  0.00000000E+00  0.00000000E+00
  0.00000000E+00  0.00000000E+00  0.00000000E+00
  0.00000000E+00  0.00000000E+00  0.00000000E+00
  0.00000000E+00  0.00000000E+00  0.00000000E+00
  0.00000000E+00  0.00000000E+00  0.00000000E+00
  0.00000000E+00  0.00000000E+00  0.00000000E+00
  0.00000000E+00  0.00000000E+00  0.00000000E+00
  0.00000000E+00  0.00000000E+00  0.00000000E+00
  0.00000000E+00  0.00000000E+00  0.00000000E+00
  0.00000000E+00  0.00000000E+00  0.00000000E+00
  0.00000000E+00  0.00000000E+00  0.00000000E+00
  0.00000000E+00  0.00000000E+00  0.00000000E+00
  0.00000000E+00  0.00000000E+00  0.00000000E+00
  0.00000000E+00  0.00000000E+00  0.00000000E+00
  0.00000000E+00  0.00000000E+00  0.00000000E+00
  0.00000000E+00  0.00000000E+00  0.00000000E+00
  0.00000000E+00  0.00000000E+00  0.00000000E+00
  0.00000000E+00  0.00000000E+00  0.00000000E+00
  0.00000000E+00  0.00000000E+00  0.00000000E+00
  0.00000000E+00  0.00000000E+00  0.00000000E+00
  0.00000000E+00  0.00000000E+00  0.00000000E+00
  0.00000000E+00  0.00000000E+00  0.00000000E+00
  0.00000000E+00  0.00000000E+00  0.00000000E+00
  0.00000000E+00  0.00000000E+00  0.00000000E+00
  0.00000000E+00  0.00000000E+00  0.00000000E+00
  0.00000000E+00  0.00000000E+00  0.00000000E+00
  0.00000000E+00  0.00000000E+00  0.00000000E+00
  0.00000000E+00  0.00000000E+00  0.00000000E+00
  0.00000000E+00  0.00000000E+00  0.00000000E+00
  0.00000000E+00  0.00000000E+00  0.00000000E+00
  0.00000000E+00  0.00000000E+00  0.00000000E+00
  0.00000000E+00  0.00000000E+00  0.00000000E+00
  0.00000000E+00  0.00000000E+00  0.00000000E+00
  0.00000000E+00  0.00000000E+00  0.00000000E+00
  0.00000000E+00  0.00000000E+00  0.00000000E+00
  0.00000000E+00  0.00000000E+00  0.00000000E+00
  0.00000000E+00  0.00000000E+00  0.00000000E+00
  0.00000000E+00  0.00000000E+00  0.00000000E+00
  0.00000000E+00  0.00000000E+00  0.00000000E+00
  0.00000000E+00  0.00000000E+00  0.00000000E+00
  0.00000000E+00  0.00000000E+00  0.00000000E+00
