  Pt C H
   1.00000000000000
     8.4555826186999994    0.0000000000000000    0.0000000000000000
     4.2277917969000001    7.3227490701000004    0.0000000000000000
     0.0000000000000000    0.0000000000000000   26.9039554595999988
   Pt   C    H    C    H
    36     6     7     1     3
Selective dynamics
Direct
  0.0000000000000000  0.0000000000000000  0.3716925382595306   F   F   F
  0.3333332837132588  0.0000000000000000  0.3716925382595306   F   F   F
  0.6666666865194273  0.0000000000000000  0.3716925382595306   F   F   F
  0.9999999999787050  0.3333333134364338  0.3716925382595306   F   F   F
  0.3333333432975536  0.3333333134364338  0.3716925382595306   F   F   F
  0.6666666268925425  0.3333333134364338  0.3716925382595306   F   F   F
  0.0000000000756799  0.6666666268728676  0.3716925382595306   F   F   F
  0.3333333134734602  0.6666666268728676  0.3716925382595306   F   F   F
  0.6666666865951072  0.6666666268728676  0.3716925382595306   F   F   F
  0.1111110969664892  0.1111111268747749  0.4572308361672768   F   F   F
  0.4444444477360321  0.1111111268747749  0.4572308361672768   F   F   F
  0.7777777314492909  0.1111111268747749  0.4572308361672768   F   F   F
  0.1111111268290585  0.4444444179152427  0.4572308361672768   F   F   F
  0.4444444179930116  0.4444444179152427  0.4572308361672768   F   F   F
  0.7777776717852021  0.4444444179152427  0.4572308361672768   F   F   F
  0.1111111268934764  0.7777776718112008  0.4572308361672768   F   F   F
  0.4444444179391667  0.7777776718112008  0.4572308361672768   F   F   F
  0.7777776718496270  0.7777776718112008  0.4572308361672768   F   F   F
  0.2216466759908500  0.2237818210643246  0.5458718922143965   F   F   F
  0.5549947050677250  0.2255518713718443  0.5413747525990561   F   F   F
  0.8896790510764415  0.2258251328439370  0.5428656837623029   F   F   F
  0.2218632014283924  0.5600086334055666  0.5414001632529064   F   F   F
  0.5557090871695723  0.5605182196232933  0.5414893829023018   F   F   F
  0.8926037292101081  0.5557980096820986  0.5432138684075775   F   F   F
  0.2225067728241497  0.8955060841989627  0.5446063885118576   F   F   F
  0.5525047151019578  0.8947950494797655  0.5436999178863099   F   F   F
  0.8922780385855983  0.8935034785434488  0.5431669123815640   F   F   F
  0.9938142457694793  0.3434932805070768  0.6347319613291319   F   F   F
  0.3334237993410225  0.3444352858225396  0.6273472768175506   F   F   F
  0.6626642496062588  0.3421820126550162  0.6271638402696844   F   F   F
  0.3348309919722446  0.6694883906434881  0.6274375855671235   F   F   F
  0.6707176705641454  0.6717514623621427  0.6277353507131238   F   F   F
  0.0008804395550201  0.6743126752523201  0.6293634891434222   F   F   F
  0.3435342306857318  0.0042410224442299  0.6383297583489594   F   F   F
  0.6727060689839081  0.0069535715049339  0.6277479113787002   F   F   F
  0.0013447140036872  0.0108828928849263  0.6337854502560194   F   F   F
  0.0732379986498382  0.3373949322911499  0.7452733659682718   T   T   T
  0.2813009179408655  0.2363149970723182  0.7384719235475139   T   T   T
  0.3635080162652713  0.0377618253446025  0.7224647953608836   T   T   T
  0.9729002055222281  0.2771426141840244  0.7096475973257791   T   T   T
  0.2478546475464403  0.9628441969661556  0.7132968951687709   T   T   T
  0.0475598083399026  0.0740912575398532  0.7080605384766285   T   T   T
  0.0169998330672323  0.4860568895287426  0.7425384024508889   T   T   T
  0.0421502793314512  0.3097975881107217  0.7833292034725765   T   T   T
  0.3473228129982849  0.2378937773423289  0.7737711696007624   T   T   T
  0.3206620534438922  0.3110030872062550  0.7115895719166849   T   T   T
  0.8256815752742849  0.3497262106730835  0.7176018616948793   T   T   T
  0.3050361220857853  0.8159032347005016  0.7192836886671797   T   T   T
  0.9711811824250004  0.0219616564134554  0.7290397502177580   T   T   T
  0.5549986540811732  0.9130305046020233  0.7417474114287114   T   T   T
  0.6484012622415689  0.9621612820603705  0.7305137637003513   T   T   T
  0.6119164950634699  0.7720091604656222  0.7282733768514464   T   T   T
  0.5502482257979018  0.9135287353561486  0.7828651485247931   T   T   T
