Pt						                                
   1.00000000000000     
     8.4555826189999994    0.0000000000000000    0.0000000000000000
     4.2277917970000001    7.3227490700000004    0.0000000000000000
     0.0000000000000000    0.0000000000000000   26.9039554599999988
   Pt   C    H    C    H 
    36     6     9     1     3
Selective dynamics
Direct
  0.0000000000000000  0.0000000000000000  0.3716925379999978   F   F   F
  0.3333332839999983  0.0000000000000000  0.3716925379999978   F   F   F
  0.6666666870000029  0.0000000000000000  0.3716925379999978   F   F   F
  0.0000000000000000  0.3333333129999971  0.3716925379999978   F   F   F
  0.3333333429999996  0.3333333129999971  0.3716925379999978   F   F   F
  0.6666666269999979  0.3333333129999971  0.3716925379999978   F   F   F
  0.0000000000756799  0.6666666269999979  0.3716925379999978   F   F   F
  0.3333333129999971  0.6666666269999979  0.3716925379999978   F   F   F
  0.6666666870000029  0.6666666269999979  0.3716925379999978   F   F   F
  0.1111110969999984  0.1111111270000009  0.4572308360000008   F   F   F
  0.4444444479999987  0.1111111270000009  0.4572308360000008   F   F   F
  0.7777777310000005  0.1111111270000009  0.4572308360000008   F   F   F
  0.1111111270000009  0.4444444180000033  0.4572308360000008   F   F   F
  0.4444444180000033  0.4444444180000033  0.4572308360000008   F   F   F
  0.7777776719999991  0.4444444180000033  0.4572308360000008   F   F   F
  0.1111111270000009  0.7777776719999991  0.4572308360000008   F   F   F
  0.4444444180000033  0.7777776719999991  0.4572308360000008   F   F   F
  0.7777776719999991  0.7777776719999991  0.4572308360000008   F   F   F
  0.2179750454223646  0.2210697987470543  0.5417596263451745   T   T   T
  0.5530727424579996  0.2237900858001641  0.5434689233168092   T   T   T
  0.8827509575163969  0.2228911330258185  0.5438516649505952   T   T   T
  0.2199176733864377  0.5566102961187038  0.5432829861971140   T   T   T
  0.5514890002123346  0.5553106560630130  0.5438498289293299   T   T   T
  0.8852937375933980  0.5547834018734878  0.5422456584277401   T   T   T
  0.2193145279878324  0.8862523263848089  0.5439762469586913   T   T   T
  0.5513995129153715  0.8889685405088509  0.5422715363941422   T   T   T
  0.8856869556676658  0.8894302750969975  0.5427223494071473   T   T   T
 -0.0085601522196437  0.3319957041432726  0.6286501516143420   T   T   T
  0.3232540678502122  0.3294714147369579  0.6264109598476613   T   T   T
  0.6567911120415355  0.3358345408618175  0.6362690928942795   T   T   T
  0.3269434143722547  0.6618590843816959  0.6360741257672028   T   T   T
  0.6594977944016177  0.6671707189494237  0.6276603642809935   T   T   T
 -0.0080860299221673  0.6659741451467288  0.6276122534739191   T   T   T
 -0.0077148459059554 -0.0004370449138246  0.6292651365933869   T   T   T
  0.3252251526671978 -0.0022410136353009  0.6287671201923488   T   T   T
  0.6588723580989934 -0.0003288958108142  0.6277943984329963   T   T   T
  0.3165961063608066  0.4846695066619175  0.7921361564063215   T   T   T
  0.2493048493858756  0.5472518220975172  0.7384502449086195   T   T   T
  0.3918979486461611  0.5768631379721377  0.7119182526233930   T   T   T
  0.5807148305694088  0.4112025241145511  0.7126808959635642   T   T   T
  0.5966068535648748  0.2486069635161632  0.7417196550347119   T   T   T
  0.5029678093695482  0.3029055298974989  0.7938599960329147   T   T   T
  0.2119678463911754  0.4682825330732865  0.8123355392799101   T   T   T
  0.3269929985329521  0.5944170006027437  0.8113097076484956   T   T   T
  0.1151525815570530  0.6729377013559855  0.7384076406092407   T   T   T
  0.2305156737658239  0.4414381336524434  0.7197054176283907   T   T   T
  0.3922893939558186  0.6992111124367018  0.7260831710539054   T   T   T
  0.6845261555952431  0.4472752162978377  0.7232548792886341   T   T   T
  0.5316880683735555  0.1840759493101862  0.7207939101377359   T   T   T
  0.7415924982955741  0.1435876984161365  0.7456669340608191   T   T   T
  0.5949529245604522  0.3205732518541342  0.8195080065713213   T   T   T
  0.4789699692578266  0.1448823254351164  0.8132416462234244   T   T   T
  0.6104757854986935  0.0166100325477604  0.8158104774199988   T   T   T
  0.4152382155419653  0.1764878857368644  0.8502922983377249   T   T   T
  0.3901759792974688  0.1216040901492846  0.7878435898768660   T   T   T
 
  0.00000000E+00  0.00000000E+00  0.00000000E+00
  0.00000000E+00  0.00000000E+00  0.00000000E+00
  0.00000000E+00  0.00000000E+00  0.00000000E+00
  0.00000000E+00  0.00000000E+00  0.00000000E+00
  0.00000000E+00  0.00000000E+00  0.00000000E+00
  0.00000000E+00  0.00000000E+00  0.00000000E+00
  0.00000000E+00  0.00000000E+00  0.00000000E+00
  0.00000000E+00  0.00000000E+00  0.00000000E+00
  0.00000000E+00  0.00000000E+00  0.00000000E+00
  0.00000000E+00  0.00000000E+00  0.00000000E+00
  0.00000000E+00  0.00000000E+00  0.00000000E+00
  0.00000000E+00  0.00000000E+00  0.00000000E+00
  0.00000000E+00  0.00000000E+00  0.00000000E+00
  0.00000000E+00  0.00000000E+00  0.00000000E+00
  0.00000000E+00  0.00000000E+00  0.00000000E+00
  0.00000000E+00  0.00000000E+00  0.00000000E+00
  0.00000000E+00  0.00000000E+00  0.00000000E+00
  0.00000000E+00  0.00000000E+00  0.00000000E+00
  0.00000000E+00  0.00000000E+00  0.00000000E+00
  0.00000000E+00  0.00000000E+00  0.00000000E+00
  0.00000000E+00  0.00000000E+00  0.00000000E+00
  0.00000000E+00  0.00000000E+00  0.00000000E+00
  0.00000000E+00  0.00000000E+00  0.00000000E+00
  0.00000000E+00  0.00000000E+00  0.00000000E+00
  0.00000000E+00  0.00000000E+00  0.00000000E+00
  0.00000000E+00  0.00000000E+00  0.00000000E+00
  0.00000000E+00  0.00000000E+00  0.00000000E+00
  0.00000000E+00  0.00000000E+00  0.00000000E+00
  0.00000000E+00  0.00000000E+00  0.00000000E+00
  0.00000000E+00  0.00000000E+00  0.00000000E+00
  0.00000000E+00  0.00000000E+00  0.00000000E+00
  0.00000000E+00  0.00000000E+00  0.00000000E+00
  0.00000000E+00  0.00000000E+00  0.00000000E+00
  0.00000000E+00  0.00000000E+00  0.00000000E+00
  0.00000000E+00  0.00000000E+00  0.00000000E+00
  0.00000000E+00  0.00000000E+00  0.00000000E+00
  0.00000000E+00  0.00000000E+00  0.00000000E+00
  0.00000000E+00  0.00000000E+00  0.00000000E+00
  0.00000000E+00  0.00000000E+00  0.00000000E+00
  0.00000000E+00  0.00000000E+00  0.00000000E+00
  0.00000000E+00  0.00000000E+00  0.00000000E+00
  0.00000000E+00  0.00000000E+00  0.00000000E+00
  0.00000000E+00  0.00000000E+00  0.00000000E+00
  0.00000000E+00  0.00000000E+00  0.00000000E+00
  0.00000000E+00  0.00000000E+00  0.00000000E+00
  0.00000000E+00  0.00000000E+00  0.00000000E+00
  0.00000000E+00  0.00000000E+00  0.00000000E+00
  0.00000000E+00  0.00000000E+00  0.00000000E+00
  0.00000000E+00  0.00000000E+00  0.00000000E+00
  0.00000000E+00  0.00000000E+00  0.00000000E+00
  0.00000000E+00  0.00000000E+00  0.00000000E+00
  0.00000000E+00  0.00000000E+00  0.00000000E+00
  0.00000000E+00  0.00000000E+00  0.00000000E+00
  0.00000000E+00  0.00000000E+00  0.00000000E+00
  0.00000000E+00  0.00000000E+00  0.00000000E+00
