Pt  C  H  C  H                          
   1.00000000000000     
    11.2741105192383149    0.0000000000000000    0.0000000000000000
     5.6370552596191574    9.7636661147337467    0.0000000000000000
     0.0000000000000000    0.0000000000000000   26.9039545189695488
   Pt   C    H    C    H 
    64     6     5     1     3
Selective dynamics
Direct
  0.0000000000000000  0.0000000000000000  0.3716925700624856   F   F   F
  0.2500000000000000  0.0000000000000000  0.3716925700624856   F   F   F
  0.5000000000000000  0.0000000000000000  0.3716925700624856   F   F   F
  0.7500000000000000  0.0000000000000000  0.3716925700624856   F   F   F
  0.0000000000000000  0.2500000000000000  0.3716925700624856   F   F   F
  0.2500000000000000  0.2500000000000000  0.3716925700624856   F   F   F
  0.5000000000000000  0.2500000000000000  0.3716925700624856   F   F   F
  0.7500000000000000  0.2500000000000000  0.3716925700624856   F   F   F
  0.0000000000000000  0.5000000000000000  0.3716925700624856   F   F   F
  0.2500000000000000  0.5000000000000000  0.3716925700624856   F   F   F
  0.5000000000000000  0.5000000000000000  0.3716925700624856   F   F   F
  0.7500000000000000  0.5000000000000000  0.3716925700624856   F   F   F
  0.0000000000000000  0.7500000000000000  0.3716925700624856   F   F   F
  0.2500000000000000  0.7500000000000000  0.3716925700624856   F   F   F
  0.5000000000000000  0.7500000000000000  0.3716925700624856   F   F   F
  0.7500000000000000  0.7500000000000000  0.3716925700624856   F   F   F
  0.0833333333333357  0.0833333333333357  0.4572308566874952   F   F   F
  0.3333333333333357  0.0833333333333357  0.4572308566874952   F   F   F
  0.5833333333333357  0.0833333333333357  0.4572308566874952   F   F   F
  0.8333333333333357  0.0833333333333357  0.4572308566874952   F   F   F
  0.0833333333333357  0.3333333333333357  0.4572308566874952   F   F   F
  0.3333333333333357  0.3333333333333357  0.4572308566874952   F   F   F
  0.5833333333333357  0.3333333333333357  0.4572308566874952   F   F   F
  0.8333333333333357  0.3333333333333357  0.4572308566874952   F   F   F
  0.0833333333333357  0.5833333333333357  0.4572308566874952   F   F   F
  0.3333333333333357  0.5833333333333357  0.4572308566874952   F   F   F
  0.5833333333333357  0.5833333333333357  0.4572308566874952   F   F   F
  0.8333333333333357  0.5833333333333357  0.4572308566874952   F   F   F
  0.0833333333333357  0.8333333333333357  0.4572308566874952   F   F   F
  0.3333333333333357  0.8333333333333357  0.4572308566874952   F   F   F
  0.5833333333333357  0.8333333333333357  0.4572308566874952   F   F   F
  0.8333333333333357  0.8333333333333357  0.4572308566874952   F   F   F
  0.9189833990861018  0.1630498426289364  0.5417674622523023   F   F   F
  0.1680126781950619  0.1630709527043308  0.5417490108171208   F   F   F
  0.4183679892911485  0.1674937708528645  0.5438449405930683   F   F   F
  0.6642753843934202  0.1674342853687278  0.5437637592421396   F   F   F
  0.9184643451176058  0.4130990937798700  0.5416270047051768   F   F   F
  0.1686093231551666  0.4162738100133865  0.5434719431680932   F   F   F
  0.4168346117988335  0.4163793714345800  0.5447527275898096   F   F   F
  0.6651636712709319  0.4162313667745607  0.5434850134876683   F   F   F
  0.9171493626836522  0.6651369063647934  0.5421805806934614   F   F   F
  0.1691525171876478  0.6630488920754090  0.5447570724010760   F   F   F
  0.4177329600174033  0.6630963311563889  0.5447238115534248   F   F   F
  0.6678042309717966  0.6650032918380404  0.5421966690101456   F   F   F
  0.9169001883934271  0.9162418677740760  0.5420265198717829   F   F   F
  0.1707906629959695  0.9084114214110812  0.5446749566438882   F   F   F
  0.4169048234498050  0.9162539850865343  0.5419805989862425   F   F   F
  0.6669813369618893  0.9159719979550331  0.5425754807131611   F   F   F
  0.0023614523873405  0.9955774191294822  0.6300075553816527   F   F   F
  0.2520693090168180  0.9954722030341401  0.6299551080279784   F   F   F
  0.5010017330621039  0.9993066714369689  0.6295435224059958   F   F   F
  0.7498012369395042  0.9991581293014136  0.6294970657469960   F   F   F
  0.0027774373294349  0.2444225358151826  0.6296358648250688   F   F   F
  0.2486973141947928  0.2416139210208783  0.6279325029525822   F   F   F
  0.5000664496901663  0.2511483819191582  0.6352216665867516   F   F   F
  0.7596449359118154  0.2416852666713609  0.6279533189297268   F   F   F
  0.9958322513537397  0.4971005101450885  0.6287921518308934   F   F   F
  0.2396291798532744  0.4970607629111612  0.6331284861043045   F   F   F
  0.5131505045402562  0.4980980702332332  0.6330681226168409   F   F   F
  0.7573162826577331  0.4969827626793162  0.6288403372894820   F   F   F
  0.9937915879066992  0.7525916465660316  0.6280544797881191   F   F   F
  0.2514415553637832  0.7463414835469493  0.6363920537332604   F   F   F
  0.5034900988006683  0.7528917439488865  0.6279942453981846   F   F   F
  0.7501390294250569  0.7497245021541943  0.6295315136993409   F   F   F
  0.3061148229740738  0.4198987941538945  0.7101967600465855   T   T   T
  0.4582024062799590  0.3371331389232566  0.7102565516234947   T   T   T
  0.2314841742180462  0.5668555198435641  0.7107141424808674   T   T   T
  0.5251725121066784  0.4221057145264311  0.7100985689218362   T   T   T
  0.2995960537120723  0.6495833631114181  0.7095835677423636   T   T   T
  0.4504769210455706  0.5690496883786267  0.7106966757220405   T   T   T
  0.2521089439096968  0.3668499216648797  0.7221509072397225   T   T   T
  0.1246941649297852  0.6182381040116240  0.7228847154702507   T   T   T
  0.6320923929718063  0.3708993623581591  0.7221903184111227   T   T   T
  0.2532863769782523  0.7408723099982808  0.7334369961798544   T   T   T
  0.5043075293782877  0.6220579461478053  0.7227047286346817   T   T   T
  0.5203136803323432  0.2164821128432379  0.7465227220852455   T   T   T
  0.6314507119952211  0.1532580714083167  0.7408545041779178   T   T   T
  0.4745924206848500  0.1510230342022467  0.7416097539973094   T   T   T
  0.5017871758108683  0.2550746122642238  0.7846181744268578   T   T   T
 
  0.00000000E+00  0.00000000E+00  0.00000000E+00
  0.00000000E+00  0.00000000E+00  0.00000000E+00
  0.00000000E+00  0.00000000E+00  0.00000000E+00
  0.00000000E+00  0.00000000E+00  0.00000000E+00
  0.00000000E+00  0.00000000E+00  0.00000000E+00
  0.00000000E+00  0.00000000E+00  0.00000000E+00
  0.00000000E+00  0.00000000E+00  0.00000000E+00
  0.00000000E+00  0.00000000E+00  0.00000000E+00
  0.00000000E+00  0.00000000E+00  0.00000000E+00
  0.00000000E+00  0.00000000E+00  0.00000000E+00
  0.00000000E+00  0.00000000E+00  0.00000000E+00
  0.00000000E+00  0.00000000E+00  0.00000000E+00
  0.00000000E+00  0.00000000E+00  0.00000000E+00
  0.00000000E+00  0.00000000E+00  0.00000000E+00
  0.00000000E+00  0.00000000E+00  0.00000000E+00
  0.00000000E+00  0.00000000E+00  0.00000000E+00
  0.00000000E+00  0.00000000E+00  0.00000000E+00
  0.00000000E+00  0.00000000E+00  0.00000000E+00
  0.00000000E+00  0.00000000E+00  0.00000000E+00
  0.00000000E+00  0.00000000E+00  0.00000000E+00
  0.00000000E+00  0.00000000E+00  0.00000000E+00
  0.00000000E+00  0.00000000E+00  0.00000000E+00
  0.00000000E+00  0.00000000E+00  0.00000000E+00
  0.00000000E+00  0.00000000E+00  0.00000000E+00
  0.00000000E+00  0.00000000E+00  0.00000000E+00
  0.00000000E+00  0.00000000E+00  0.00000000E+00
  0.00000000E+00  0.00000000E+00  0.00000000E+00
  0.00000000E+00  0.00000000E+00  0.00000000E+00
  0.00000000E+00  0.00000000E+00  0.00000000E+00
  0.00000000E+00  0.00000000E+00  0.00000000E+00
  0.00000000E+00  0.00000000E+00  0.00000000E+00
  0.00000000E+00  0.00000000E+00  0.00000000E+00
  0.00000000E+00  0.00000000E+00  0.00000000E+00
  0.00000000E+00  0.00000000E+00  0.00000000E+00
  0.00000000E+00  0.00000000E+00  0.00000000E+00
  0.00000000E+00  0.00000000E+00  0.00000000E+00
  0.00000000E+00  0.00000000E+00  0.00000000E+00
  0.00000000E+00  0.00000000E+00  0.00000000E+00
  0.00000000E+00  0.00000000E+00  0.00000000E+00
  0.00000000E+00  0.00000000E+00  0.00000000E+00
  0.00000000E+00  0.00000000E+00  0.00000000E+00
  0.00000000E+00  0.00000000E+00  0.00000000E+00
  0.00000000E+00  0.00000000E+00  0.00000000E+00
  0.00000000E+00  0.00000000E+00  0.00000000E+00
  0.00000000E+00  0.00000000E+00  0.00000000E+00
  0.00000000E+00  0.00000000E+00  0.00000000E+00
  0.00000000E+00  0.00000000E+00  0.00000000E+00
  0.00000000E+00  0.00000000E+00  0.00000000E+00
  0.00000000E+00  0.00000000E+00  0.00000000E+00
  0.00000000E+00  0.00000000E+00  0.00000000E+00
  0.00000000E+00  0.00000000E+00  0.00000000E+00
  0.00000000E+00  0.00000000E+00  0.00000000E+00
  0.00000000E+00  0.00000000E+00  0.00000000E+00
  0.00000000E+00  0.00000000E+00  0.00000000E+00
  0.00000000E+00  0.00000000E+00  0.00000000E+00
  0.00000000E+00  0.00000000E+00  0.00000000E+00
  0.00000000E+00  0.00000000E+00  0.00000000E+00
  0.00000000E+00  0.00000000E+00  0.00000000E+00
  0.00000000E+00  0.00000000E+00  0.00000000E+00
  0.00000000E+00  0.00000000E+00  0.00000000E+00
  0.00000000E+00  0.00000000E+00  0.00000000E+00
  0.00000000E+00  0.00000000E+00  0.00000000E+00
  0.00000000E+00  0.00000000E+00  0.00000000E+00
  0.00000000E+00  0.00000000E+00  0.00000000E+00
  0.00000000E+00  0.00000000E+00  0.00000000E+00
  0.00000000E+00  0.00000000E+00  0.00000000E+00
  0.00000000E+00  0.00000000E+00  0.00000000E+00
  0.00000000E+00  0.00000000E+00  0.00000000E+00
  0.00000000E+00  0.00000000E+00  0.00000000E+00
  0.00000000E+00  0.00000000E+00  0.00000000E+00
  0.00000000E+00  0.00000000E+00  0.00000000E+00
  0.00000000E+00  0.00000000E+00  0.00000000E+00
  0.00000000E+00  0.00000000E+00  0.00000000E+00
  0.00000000E+00  0.00000000E+00  0.00000000E+00
  0.00000000E+00  0.00000000E+00  0.00000000E+00
  0.00000000E+00  0.00000000E+00  0.00000000E+00
  0.00000000E+00  0.00000000E+00  0.00000000E+00
  0.00000000E+00  0.00000000E+00  0.00000000E+00
  0.00000000E+00  0.00000000E+00  0.00000000E+00
