Pt  C  H  C  H                          
   1.00000000000000     
    11.2741105192383149    0.0000000000000000    0.0000000000000000
     5.6370552596191574    9.7636661147337467    0.0000000000000000
     0.0000000000000000    0.0000000000000000   26.9039545189695488
   Pt   C    H    C    H 
    64     6     5     1     3
Selective dynamics
Direct
  0.0000000000000000  0.0000000000000000  0.3716925700624856   F   F   F
  0.2500000000000000  0.0000000000000000  0.3716925700624856   F   F   F
  0.5000000000000000  0.0000000000000000  0.3716925700624856   F   F   F
  0.7500000000000000  0.0000000000000000  0.3716925700624856   F   F   F
  0.0000000000000000  0.2500000000000000  0.3716925700624856   F   F   F
  0.2500000000000000  0.2500000000000000  0.3716925700624856   F   F   F
  0.5000000000000000  0.2500000000000000  0.3716925700624856   F   F   F
  0.7500000000000000  0.2500000000000000  0.3716925700624856   F   F   F
  0.0000000000000000  0.5000000000000000  0.3716925700624856   F   F   F
  0.2500000000000000  0.5000000000000000  0.3716925700624856   F   F   F
  0.5000000000000000  0.5000000000000000  0.3716925700624856   F   F   F
  0.7500000000000000  0.5000000000000000  0.3716925700624856   F   F   F
  0.0000000000000000  0.7500000000000000  0.3716925700624856   F   F   F
  0.2500000000000000  0.7500000000000000  0.3716925700624856   F   F   F
  0.5000000000000000  0.7500000000000000  0.3716925700624856   F   F   F
  0.7500000000000000  0.7500000000000000  0.3716925700624856   F   F   F
  0.0833333333333357  0.0833333333333357  0.4572308566874952   F   F   F
  0.3333333333333357  0.0833333333333357  0.4572308566874952   F   F   F
  0.5833333333333357  0.0833333333333357  0.4572308566874952   F   F   F
  0.8333333333333357  0.0833333333333357  0.4572308566874952   F   F   F
  0.0833333333333357  0.3333333333333357  0.4572308566874952   F   F   F
  0.3333333333333357  0.3333333333333357  0.4572308566874952   F   F   F
  0.5833333333333357  0.3333333333333357  0.4572308566874952   F   F   F
  0.8333333333333357  0.3333333333333357  0.4572308566874952   F   F   F
  0.0833333333333357  0.5833333333333357  0.4572308566874952   F   F   F
  0.3333333333333357  0.5833333333333357  0.4572308566874952   F   F   F
  0.5833333333333357  0.5833333333333357  0.4572308566874952   F   F   F
  0.8333333333333357  0.5833333333333357  0.4572308566874952   F   F   F
  0.0833333333333357  0.8333333333333357  0.4572308566874952   F   F   F
  0.3333333333333357  0.8333333333333357  0.4572308566874952   F   F   F
  0.5833333333333357  0.8333333333333357  0.4572308566874952   F   F   F
  0.8333333333333357  0.8333333333333357  0.4572308566874952   F   F   F
  0.9189833990860996  0.1630498426289355  0.5417674622523052   F   F   F
  0.1680126781950618  0.1630709527043286  0.5417490108171208   F   F   F
  0.4183679892911517  0.1674937708528617  0.5438449405930714   F   F   F
  0.6642753843934210  0.1674342853687268  0.5437637592421410   F   F   F
  0.9184643451176091  0.4130990937798677  0.5416270047051800   F   F   F
  0.1686093231551658  0.4162738100133896  0.5434719431680954   F   F   F
  0.4168346117988317  0.4163793714345824  0.5447527275898109   F   F   F
  0.6651636712709287  0.4162313667745585  0.5434850134876713   F   F   F
  0.9171493626836548  0.6651369063647925  0.5421805806934626   F   F   F
  0.1691525171876476  0.6630488920754103  0.5447570724010790   F   F   F
  0.4177329600174000  0.6630963311563922  0.5447238115534226   F   F   F
  0.6678042309717999  0.6650032918380377  0.5421966690101452   F   F   F
  0.9169001883934239  0.9162418677740776  0.5420265198717861   F   F   F
  0.1707906629959714  0.9084114214110827  0.5446749566438854   F   F   F
  0.4169048234498056  0.9162539850865351  0.5419805989862413   F   F   F
  0.6669813369618873  0.9159719979550306  0.5425754807131622   F   F   F
  0.0023614523873410  0.9955774191294804  0.6300075553816555   F   F   F
  0.2520693090168193  0.9954722030341392  0.6299551080279812   F   F   F
  0.5010017330621032  0.9993066714369675  0.6295435224059991   F   F   F
  0.7498012369395034  0.9991581293014116  0.6294970657469979   F   F   F
  0.0027774373294324  0.2444225358151848  0.6296358648250706   F   F   F
  0.2486973141947899  0.2416139210208748  0.6279325029525796   F   F   F
  0.5000664496901673  0.2511483819191613  0.6352216665867496   F   F   F
  0.7596449359118148  0.2416852666713596  0.6279533189297256   F   F   F
  0.9958322513537362  0.4971005101450897  0.6287921518308947   F   F   F
  0.2396291798532744  0.4970607629111646  0.6331284861043049   F   F   F
  0.5131505045402538  0.4980980702332348  0.6330681226168381   F   F   F
  0.7573162826577310  0.4969827626793127  0.6288403372894825   F   F   F
  0.9937915879066969  0.7525916465660304  0.6280544797881200   F   F   F
  0.2514415553637811  0.7463414835469472  0.6363920537332629   F   F   F
  0.5034900988006706  0.7528917439488839  0.6279942453981862   F   F   F
  0.7501390294250594  0.7497245021541940  0.6295315136993415   F   F   F
  0.3061148229740771  0.4198987941538971  0.7101967600465848   T   T   T
  0.4582024062799583  0.3371331389232554  0.7102565516234978   T   T   T
  0.2314841742180484  0.5668555198435637  0.7107141424808693   T   T   T
  0.5251725121066810  0.4221057145264278  0.7100985689218389   T   T   T
  0.2995960537120744  0.6495833631114202  0.7095835677423632   T   T   T
  0.4504769210455695  0.5690496883786272  0.7106966757220405   T   T   T
  0.2521089439096939  0.3668499216648769  0.7221509072397200   T   T   T
  0.1246941649297832  0.6182381040116210  0.7228847154702500   T   T   T
  0.6320923929718054  0.3708993623581562  0.7221903184111210   T   T   T
  0.2532863769782538  0.7408723099982830  0.7334369961798564   T   T   T
  0.5043075293782876  0.6220579461478088  0.7227047286346796   T   T   T
  0.5203136803323445  0.2164821128432373  0.7465227220852435   T   T   T
  0.6314507119952208  0.1532580714083181  0.7408545041779171   T   T   T
  0.4745924206848473  0.1510230342022469  0.7416097539973090   T   T   T
  0.5017871758108656  0.2550746122642232  0.7851757132819529   T   T   T
 
  0.00000000E+00  0.00000000E+00  0.00000000E+00
  0.00000000E+00  0.00000000E+00  0.00000000E+00
  0.00000000E+00  0.00000000E+00  0.00000000E+00
  0.00000000E+00  0.00000000E+00  0.00000000E+00
  0.00000000E+00  0.00000000E+00  0.00000000E+00
  0.00000000E+00  0.00000000E+00  0.00000000E+00
  0.00000000E+00  0.00000000E+00  0.00000000E+00
  0.00000000E+00  0.00000000E+00  0.00000000E+00
  0.00000000E+00  0.00000000E+00  0.00000000E+00
  0.00000000E+00  0.00000000E+00  0.00000000E+00
  0.00000000E+00  0.00000000E+00  0.00000000E+00
  0.00000000E+00  0.00000000E+00  0.00000000E+00
  0.00000000E+00  0.00000000E+00  0.00000000E+00
  0.00000000E+00  0.00000000E+00  0.00000000E+00
  0.00000000E+00  0.00000000E+00  0.00000000E+00
  0.00000000E+00  0.00000000E+00  0.00000000E+00
  0.00000000E+00  0.00000000E+00  0.00000000E+00
  0.00000000E+00  0.00000000E+00  0.00000000E+00
  0.00000000E+00  0.00000000E+00  0.00000000E+00
  0.00000000E+00  0.00000000E+00  0.00000000E+00
  0.00000000E+00  0.00000000E+00  0.00000000E+00
  0.00000000E+00  0.00000000E+00  0.00000000E+00
  0.00000000E+00  0.00000000E+00  0.00000000E+00
  0.00000000E+00  0.00000000E+00  0.00000000E+00
  0.00000000E+00  0.00000000E+00  0.00000000E+00
  0.00000000E+00  0.00000000E+00  0.00000000E+00
  0.00000000E+00  0.00000000E+00  0.00000000E+00
  0.00000000E+00  0.00000000E+00  0.00000000E+00
  0.00000000E+00  0.00000000E+00  0.00000000E+00
  0.00000000E+00  0.00000000E+00  0.00000000E+00
  0.00000000E+00  0.00000000E+00  0.00000000E+00
  0.00000000E+00  0.00000000E+00  0.00000000E+00
  0.00000000E+00  0.00000000E+00  0.00000000E+00
  0.00000000E+00  0.00000000E+00  0.00000000E+00
  0.00000000E+00  0.00000000E+00  0.00000000E+00
  0.00000000E+00  0.00000000E+00  0.00000000E+00
  0.00000000E+00  0.00000000E+00  0.00000000E+00
  0.00000000E+00  0.00000000E+00  0.00000000E+00
  0.00000000E+00  0.00000000E+00  0.00000000E+00
  0.00000000E+00  0.00000000E+00  0.00000000E+00
  0.00000000E+00  0.00000000E+00  0.00000000E+00
  0.00000000E+00  0.00000000E+00  0.00000000E+00
  0.00000000E+00  0.00000000E+00  0.00000000E+00
  0.00000000E+00  0.00000000E+00  0.00000000E+00
  0.00000000E+00  0.00000000E+00  0.00000000E+00
  0.00000000E+00  0.00000000E+00  0.00000000E+00
  0.00000000E+00  0.00000000E+00  0.00000000E+00
  0.00000000E+00  0.00000000E+00  0.00000000E+00
  0.00000000E+00  0.00000000E+00  0.00000000E+00
  0.00000000E+00  0.00000000E+00  0.00000000E+00
  0.00000000E+00  0.00000000E+00  0.00000000E+00
  0.00000000E+00  0.00000000E+00  0.00000000E+00
  0.00000000E+00  0.00000000E+00  0.00000000E+00
  0.00000000E+00  0.00000000E+00  0.00000000E+00
  0.00000000E+00  0.00000000E+00  0.00000000E+00
  0.00000000E+00  0.00000000E+00  0.00000000E+00
  0.00000000E+00  0.00000000E+00  0.00000000E+00
  0.00000000E+00  0.00000000E+00  0.00000000E+00
  0.00000000E+00  0.00000000E+00  0.00000000E+00
  0.00000000E+00  0.00000000E+00  0.00000000E+00
  0.00000000E+00  0.00000000E+00  0.00000000E+00
  0.00000000E+00  0.00000000E+00  0.00000000E+00
  0.00000000E+00  0.00000000E+00  0.00000000E+00
  0.00000000E+00  0.00000000E+00  0.00000000E+00
  0.00000000E+00  0.00000000E+00  0.00000000E+00
  0.00000000E+00  0.00000000E+00  0.00000000E+00
  0.00000000E+00  0.00000000E+00  0.00000000E+00
  0.00000000E+00  0.00000000E+00  0.00000000E+00
  0.00000000E+00  0.00000000E+00  0.00000000E+00
  0.00000000E+00  0.00000000E+00  0.00000000E+00
  0.00000000E+00  0.00000000E+00  0.00000000E+00
  0.00000000E+00  0.00000000E+00  0.00000000E+00
  0.00000000E+00  0.00000000E+00  0.00000000E+00
  0.00000000E+00  0.00000000E+00  0.00000000E+00
  0.00000000E+00  0.00000000E+00  0.00000000E+00
  0.00000000E+00  0.00000000E+00  0.00000000E+00
  0.00000000E+00  0.00000000E+00  0.00000000E+00
  0.00000000E+00  0.00000000E+00  0.00000000E+00
  0.00000000E+00  0.00000000E+00  0.00000000E+00
