Pt C H C H                              
   1.00000000000000     
     8.4555826189999994    0.0000000000000000    0.0000000000000000
     4.2277917970000001    7.3227490700000004    0.0000000000000000
     0.0000000000000000    0.0000000000000000   26.9039554599999988
   Pt   C    H    C    H 
    36     6     9     1     3
Selective dynamics
Direct
  0.0000000000000000  0.0000000000000000  0.3716925379999978   F   F   F
  0.3333332839999983  0.0000000000000000  0.3716925379999978   F   F   F
  0.6666666870000029  0.0000000000000000  0.3716925379999978   F   F   F
  0.0000000000000000  0.3333333129999971  0.3716925379999978   F   F   F
  0.3333333429999996  0.3333333129999971  0.3716925379999978   F   F   F
  0.6666666269999979  0.3333333129999971  0.3716925379999978   F   F   F
  0.0000000000756799  0.6666666269999979  0.3716925379999978   F   F   F
  0.3333333129999971  0.6666666269999979  0.3716925379999978   F   F   F
  0.6666666870000029  0.6666666269999979  0.3716925379999978   F   F   F
  0.1111110969999984  0.1111111270000009  0.4572308360000008   F   F   F
  0.4444444479999987  0.1111111270000009  0.4572308360000008   F   F   F
  0.7777777310000005  0.1111111270000009  0.4572308360000008   F   F   F
  0.1111111270000009  0.4444444180000033  0.4572308360000008   F   F   F
  0.4444444180000033  0.4444444180000033  0.4572308360000008   F   F   F
  0.7777776719999991  0.4444444180000033  0.4572308360000008   F   F   F
  0.1111111270000009  0.7777776719999991  0.4572308360000008   F   F   F
  0.4444444180000033  0.7777776719999991  0.4572308360000008   F   F   F
  0.7777776719999991  0.7777776719999991  0.4572308360000008   F   F   F
  0.2129466323491442  0.2268313283226959  0.5440879579321987   F   F   F
  0.5501568331318154  0.2237037137897673  0.5414662185266010   F   F   F
  0.8855172278745229  0.2276345783670095  0.5438575699036790   F   F   F
  0.2175211216064952  0.5577966005461974  0.5417849490970283   F   F   F
  0.5516362634490122  0.5601206624821700  0.5430904323388006   F   F   F
  0.8828962430134055  0.5574929268224693  0.5440158685954373   F   F   F
  0.2168276378837248  0.8929556376429346  0.5423925307368194   F   F   F
  0.5515897527905906  0.8879296070153089  0.5443169127083536   F   F   F
  0.8833537058254208  0.8929701792922771  0.5419495221134341   F   F   F
  0.9856480063126227  0.3453385881008586  0.6402384896262134   F   F   F
  0.3221237956045755  0.3377012153151497  0.6285586285812599   F   F   F
  0.6540355454307871  0.3352334993409158  0.6270556407987016   F   F   F
  0.3205997021178533  0.6736505712712173  0.6279177188185017   F   F   F
  0.6563480250600477  0.6674200502369061  0.6370876109407178   F   F   F
  0.9884739881295133  0.6748701058740352  0.6274511312095399   F   F   F
  0.9888628664450749  0.0070532298636792  0.6289705009987046   F   F   F
  0.3205002925478411  0.0071314294174201  0.6300172961809736   F   F   F
  0.6544795315023464  0.0046252726820981  0.6291075141789690   F   F   F
  0.6257553201462329  0.4854946888465363  0.7916991585110793   T   T   T
  0.5738771425755473  0.5417108125298427  0.7367065294743895   T   T   T
  0.7120940728453888  0.5858370721042547  0.7133864510510861   T   T   T
  0.9085590533598520  0.4310939834549075  0.7173007169100174   T   T   T
  0.9264368814323518  0.2657849236994636  0.7461639291995539   T   T   T
  0.8268704034119807  0.3288212569662718  0.7970911213454031   T   T   T
  0.5307310740725484  0.4443426071025272  0.8069969679174065   T   T   T
  0.6034846040263844  0.6060632711587530  0.8132001440801133   T   T   T
  0.4340733108600290  0.6589310775920509  0.7337974538805128   T   T   T
  0.5731083975775704  0.4274271045314038  0.7168398729303220   T   T   T
  0.6968615598044536  0.7138802085684972  0.7287235191932524   T   T   T
  0.8675957943294534  0.1957739310139957  0.7251253114240868   T   T   T
  0.0718925984800691  0.1650400762094222  0.7518287453188179   T   T   T
  0.9028536012299924  0.3728398471109813  0.8212325301707253   T   T   T
  0.8326658354068286  0.2094212255014227  0.8153661001090313   T   T   T
  0.0351380459311912  0.4949561107446598  0.7387605042702958   T   T   T
  0.9980897608834240  0.5338789028748678  0.7781605293982778   T   T   T
  0.1797922555248945  0.3876819277306751  0.7372843308618258   T   T   T
  0.0197658957313323  0.6170835847086876  0.7188421413566897   T   T   T
 
  0.00000000E+00  0.00000000E+00  0.00000000E+00
  0.00000000E+00  0.00000000E+00  0.00000000E+00
  0.00000000E+00  0.00000000E+00  0.00000000E+00
  0.00000000E+00  0.00000000E+00  0.00000000E+00
  0.00000000E+00  0.00000000E+00  0.00000000E+00
  0.00000000E+00  0.00000000E+00  0.00000000E+00
  0.00000000E+00  0.00000000E+00  0.00000000E+00
  0.00000000E+00  0.00000000E+00  0.00000000E+00
  0.00000000E+00  0.00000000E+00  0.00000000E+00
  0.00000000E+00  0.00000000E+00  0.00000000E+00
  0.00000000E+00  0.00000000E+00  0.00000000E+00
  0.00000000E+00  0.00000000E+00  0.00000000E+00
  0.00000000E+00  0.00000000E+00  0.00000000E+00
  0.00000000E+00  0.00000000E+00  0.00000000E+00
  0.00000000E+00  0.00000000E+00  0.00000000E+00
  0.00000000E+00  0.00000000E+00  0.00000000E+00
  0.00000000E+00  0.00000000E+00  0.00000000E+00
  0.00000000E+00  0.00000000E+00  0.00000000E+00
  0.00000000E+00  0.00000000E+00  0.00000000E+00
  0.00000000E+00  0.00000000E+00  0.00000000E+00
  0.00000000E+00  0.00000000E+00  0.00000000E+00
  0.00000000E+00  0.00000000E+00  0.00000000E+00
  0.00000000E+00  0.00000000E+00  0.00000000E+00
  0.00000000E+00  0.00000000E+00  0.00000000E+00
  0.00000000E+00  0.00000000E+00  0.00000000E+00
  0.00000000E+00  0.00000000E+00  0.00000000E+00
  0.00000000E+00  0.00000000E+00  0.00000000E+00
  0.00000000E+00  0.00000000E+00  0.00000000E+00
  0.00000000E+00  0.00000000E+00  0.00000000E+00
  0.00000000E+00  0.00000000E+00  0.00000000E+00
  0.00000000E+00  0.00000000E+00  0.00000000E+00
  0.00000000E+00  0.00000000E+00  0.00000000E+00
  0.00000000E+00  0.00000000E+00  0.00000000E+00
  0.00000000E+00  0.00000000E+00  0.00000000E+00
  0.00000000E+00  0.00000000E+00  0.00000000E+00
  0.00000000E+00  0.00000000E+00  0.00000000E+00
  0.00000000E+00  0.00000000E+00  0.00000000E+00
  0.00000000E+00  0.00000000E+00  0.00000000E+00
  0.00000000E+00  0.00000000E+00  0.00000000E+00
  0.00000000E+00  0.00000000E+00  0.00000000E+00
  0.00000000E+00  0.00000000E+00  0.00000000E+00
  0.00000000E+00  0.00000000E+00  0.00000000E+00
  0.00000000E+00  0.00000000E+00  0.00000000E+00
  0.00000000E+00  0.00000000E+00  0.00000000E+00
  0.00000000E+00  0.00000000E+00  0.00000000E+00
  0.00000000E+00  0.00000000E+00  0.00000000E+00
  0.00000000E+00  0.00000000E+00  0.00000000E+00
  0.00000000E+00  0.00000000E+00  0.00000000E+00
  0.00000000E+00  0.00000000E+00  0.00000000E+00
  0.00000000E+00  0.00000000E+00  0.00000000E+00
  0.00000000E+00  0.00000000E+00  0.00000000E+00
  0.00000000E+00  0.00000000E+00  0.00000000E+00
  0.00000000E+00  0.00000000E+00  0.00000000E+00
  0.00000000E+00  0.00000000E+00  0.00000000E+00
  0.00000000E+00  0.00000000E+00  0.00000000E+00
