Pt  C  H                                
   1.00000000000000     
     8.3155765532999997    0.0000000000000000    0.0000000000000000
     4.1577877998000004    7.2014997163999999    0.0000000000000000
     0.0000000000000000    0.0000000000000000   26.7896385192999986
   Pt   C    H    C    H 
    36     6     7     1     3
Selective dynamics
Direct
  0.0000000000000000  0.0000000000000000  0.3716925850950332   F   F   F
  0.3333333429418062  0.0000000000000000  0.3716925850950332   F   F   F
  0.6666666857633601  0.0000000000000000  0.3716925850950332   F   F   F
  0.9999999988885335  0.3333333546529644  0.3716925850950332   F   F   F
  0.3333333418303397  0.3333333546529644  0.3716925850950332   F   F   F
  0.6666667133931341  0.3333333546529644  0.3716925850950332   F   F   F
  0.9999999977770599  0.6666667093059360  0.3716925850950332   F   F   F
  0.3333333119776256  0.6666667093059360  0.3716925850950332   F   F   F
  0.6666666835404200  0.6666667093059360  0.3716925850950332   F   F   F
  0.1111111057053478  0.1111111155330278  0.4572308498367903   F   F   F
  0.4444444486471539  0.1111111155330278  0.4572308498367903   F   F   F
  0.7777778202099483  0.1111111155330278  0.4572308498367903   F   F   F
  0.1111111087596726  0.4444444618543955  0.4572308498367903   F   F   F
  0.4444444229602382  0.4444444618543955  0.4572308498367903   F   F   F
  0.7777777945230326  0.4444444618543955  0.4572308498367903   F   F   F
  0.1111110790272178  0.7777778165073670  0.4572308498367903   F   F   F
  0.4444443932277835  0.7777778165073670  0.4572308498367903   F   F   F
  0.7777777647905779  0.7777778165073670  0.4572308498367903   F   F   F
  0.2218392185300786  0.2171100403923845  0.5472169800586499   F   F   F
  0.5508097844673401  0.2204071805521934  0.5465571489403942   F   F   F
  0.8887177561942323  0.2210693085788549  0.5464279790182545   F   F   F
  0.2210353349579890  0.5501251668126201  0.5446670926397275   F   F   F
  0.5548443553343461  0.5505521421691171  0.5444038480459525   F   F   F
  0.8874989949640693  0.5508299210772662  0.5446832245680469   F   F   F
  0.2225756157093173  0.8874585905477304  0.5463200133448893   F   F   F
  0.5501350238396938  0.8864301006387194  0.5467374710413182   F   F   F
  0.8859433135363162  0.8872785726435879  0.5429454193543819   F   F   F
  0.0009890983847427  0.3278195555142887  0.6390166548983203   F   F   F
  0.3296159585876808  0.3255693623164078  0.6400587066528232   F   F   F
  0.6653632223016430  0.3242602583683336  0.6346333694125192   F   F   F
  0.3333915142095663  0.6533248812858616  0.6314611138448356   F   F   F
  0.6680435901349497  0.6527723852825957  0.6330524272371889   F   F   F
  0.9948548109955979  0.6630254103907021  0.6314568194836170   F   F   F
  0.3338585050148311  0.9830955924822078  0.6435114567819937   F   F   F
  0.6673017827271508  0.9909781222327396  0.6324038237972260   F   F   F
  0.9943439882013791  0.9911603703206424  0.6317021305572155   F   F   F
  0.0731990161251801  0.3317842307759804  0.7152100897274138   T   T   T
  0.0747173847657763  0.1644194818118194  0.7393230285671137   T   T   T
  0.2575987147482195  0.3291327409976503  0.7174520452368327   T   T   T
  0.2405946400133487  0.9842319227326968  0.7223359133861038   T   T   T
  0.4146112443160490  0.9765582984387748  0.7225325127022444   T   T   T
  0.4165032590497049  0.1485384215062311  0.7397144015574781   T   T   T
  0.2348098651024983  0.8571360590039419  0.7272182483448120   T   T   T
  0.0884430812552637  0.1716372804279942  0.7805803879478574   T   T   T
  0.9426220070338402  0.1677782803167815  0.7325028682865948   T   T   T
  0.5420726280918231  0.8429727130829860  0.7273897735940835   T   T   T
  0.5519137465302251  0.1374325041796212  0.7324432911248024   T   T   T
  0.3986773316086172  0.1556240638856536  0.7810777277175589   T   T   T
  0.9571655887292252  0.4643810374315862  0.7286675831804459   T   T   T
  0.2454497799845612  0.5004624976254561  0.7423550788822766   T   T   T
  0.1307894899518161  0.6289440323931288  0.7263207770657729   T   T   T
  0.3756800030975427  0.5033360371777462  0.7373005215460395   T   T   T
  0.2201186617737534  0.4996664846744991  0.7823733069978701   T   T   T
 
  0.00000000E+00  0.00000000E+00  0.00000000E+00
  0.00000000E+00  0.00000000E+00  0.00000000E+00
  0.00000000E+00  0.00000000E+00  0.00000000E+00
  0.00000000E+00  0.00000000E+00  0.00000000E+00
  0.00000000E+00  0.00000000E+00  0.00000000E+00
  0.00000000E+00  0.00000000E+00  0.00000000E+00
  0.00000000E+00  0.00000000E+00  0.00000000E+00
  0.00000000E+00  0.00000000E+00  0.00000000E+00
  0.00000000E+00  0.00000000E+00  0.00000000E+00
  0.00000000E+00  0.00000000E+00  0.00000000E+00
  0.00000000E+00  0.00000000E+00  0.00000000E+00
  0.00000000E+00  0.00000000E+00  0.00000000E+00
  0.00000000E+00  0.00000000E+00  0.00000000E+00
  0.00000000E+00  0.00000000E+00  0.00000000E+00
  0.00000000E+00  0.00000000E+00  0.00000000E+00
  0.00000000E+00  0.00000000E+00  0.00000000E+00
  0.00000000E+00  0.00000000E+00  0.00000000E+00
  0.00000000E+00  0.00000000E+00  0.00000000E+00
  0.00000000E+00  0.00000000E+00  0.00000000E+00
  0.00000000E+00  0.00000000E+00  0.00000000E+00
  0.00000000E+00  0.00000000E+00  0.00000000E+00
  0.00000000E+00  0.00000000E+00  0.00000000E+00
  0.00000000E+00  0.00000000E+00  0.00000000E+00
  0.00000000E+00  0.00000000E+00  0.00000000E+00
  0.00000000E+00  0.00000000E+00  0.00000000E+00
  0.00000000E+00  0.00000000E+00  0.00000000E+00
  0.00000000E+00  0.00000000E+00  0.00000000E+00
  0.00000000E+00  0.00000000E+00  0.00000000E+00
  0.00000000E+00  0.00000000E+00  0.00000000E+00
  0.00000000E+00  0.00000000E+00  0.00000000E+00
  0.00000000E+00  0.00000000E+00  0.00000000E+00
  0.00000000E+00  0.00000000E+00  0.00000000E+00
  0.00000000E+00  0.00000000E+00  0.00000000E+00
  0.00000000E+00  0.00000000E+00  0.00000000E+00
  0.00000000E+00  0.00000000E+00  0.00000000E+00
  0.00000000E+00  0.00000000E+00  0.00000000E+00
  0.00000000E+00  0.00000000E+00  0.00000000E+00
  0.00000000E+00  0.00000000E+00  0.00000000E+00
  0.00000000E+00  0.00000000E+00  0.00000000E+00
  0.00000000E+00  0.00000000E+00  0.00000000E+00
  0.00000000E+00  0.00000000E+00  0.00000000E+00
  0.00000000E+00  0.00000000E+00  0.00000000E+00
  0.00000000E+00  0.00000000E+00  0.00000000E+00
  0.00000000E+00  0.00000000E+00  0.00000000E+00
  0.00000000E+00  0.00000000E+00  0.00000000E+00
  0.00000000E+00  0.00000000E+00  0.00000000E+00
  0.00000000E+00  0.00000000E+00  0.00000000E+00
  0.00000000E+00  0.00000000E+00  0.00000000E+00
  0.00000000E+00  0.00000000E+00  0.00000000E+00
  0.00000000E+00  0.00000000E+00  0.00000000E+00
  0.00000000E+00  0.00000000E+00  0.00000000E+00
  0.00000000E+00  0.00000000E+00  0.00000000E+00
  0.00000000E+00  0.00000000E+00  0.00000000E+00
