Pt  C  H                                
   1.00000000000000     
     8.3155765532999997    0.0000000000000000    0.0000000000000000
     4.1577877998000004    7.2014997163999999    0.0000000000000000
     0.0000000000000000    0.0000000000000000   26.7896385192999986
   Pt   C    H    C    H 
    36     6     7     1     3
Selective dynamics
Direct
  0.0000000000000000  0.0000000000000000  0.3716925850950332   F   F   F
  0.3333333429418062  0.0000000000000000  0.3716925850950332   F   F   F
  0.6666666857633601  0.0000000000000000  0.3716925850950332   F   F   F
  0.9999999988885335  0.3333333546529644  0.3716925850950332   F   F   F
  0.3333333418303397  0.3333333546529644  0.3716925850950332   F   F   F
  0.6666667133931341  0.3333333546529644  0.3716925850950332   F   F   F
  0.9999999977770599  0.6666667093059360  0.3716925850950332   F   F   F
  0.3333333119776256  0.6666667093059360  0.3716925850950332   F   F   F
  0.6666666835404200  0.6666667093059360  0.3716925850950332   F   F   F
  0.1111111057053478  0.1111111155330278  0.4572308498367903   F   F   F
  0.4444444486471539  0.1111111155330278  0.4572308498367903   F   F   F
  0.7777778202099483  0.1111111155330278  0.4572308498367903   F   F   F
  0.1111111087596726  0.4444444618543955  0.4572308498367903   F   F   F
  0.4444444229602382  0.4444444618543955  0.4572308498367903   F   F   F
  0.7777777945230326  0.4444444618543955  0.4572308498367903   F   F   F
  0.1111110790272178  0.7777778165073670  0.4572308498367903   F   F   F
  0.4444443932277835  0.7777778165073670  0.4572308498367903   F   F   F
  0.7777777647905779  0.7777778165073670  0.4572308498367903   F   F   F
  0.2218392185300783  0.2171100403923851  0.5472169800586474   F  F  F
  0.5508097844673433  0.2204071805521927  0.5465571489403946   F  F  F
  0.8887177561942349  0.2210693085788581  0.5464279790182528   F  F  F
  0.2210353349579880  0.5501251668126212  0.5446670926397270   F  F  F
  0.5548443553343481  0.5505521421691156  0.5444038480459524   F  F  F
  0.8874989949640704  0.5508299210772654  0.5446832245680436   F  F  F
  0.2225756157093191  0.8874585905477275  0.5463200133448864   F  F  F
  0.5501350238396960  0.8864301006387219  0.5467374710413205   F  F  F
  0.8859433135363176  0.8872785726435892  0.5429454193543849   F  F  F
  0.0009890983847425  0.3278195555142892  0.6390166548983233   F  F  F
  0.3296159585876791  0.3255693623164110  0.6400587066528231   F  F  F
  0.6653632223016431  0.3242602583683303  0.6346333694125214   F  F  F
  0.3333915142095657  0.6533248812858584  0.6314611138448374   F  F  F
  0.6680435901349516  0.6527723852825984  0.6330524272371867   F  F  F
  0.9948548109955956  0.6630254103907014  0.6314568194836181   F  F  F
  0.3338585050148325  0.9830955924822059  0.6435114567819932   F  F  F
  0.6673017827271477  0.9909781222327364  0.6324038237972254   F  F  F
  0.9943439882013765  0.9911603703206452  0.6317021305572150   F  F  F
  0.0731990161251801  0.3317842307759781  0.7152100897274122   T   T   T
  0.0747173847657752  0.1644194818118225  0.7393230285671155   T   T   T
  0.2575987147482175  0.3291327409976520  0.7174520452368317   T   T   T
  0.2405946400133521  0.9842319227326951  0.7223359133861006   T   T   T
  0.4146112443160515  0.9765582984387763  0.7225325127022445   T   T   T
  0.4165032590497021  0.1485384215062329  0.7397144015574797   T   T   T
  0.2348098651025015  0.8571360590039435  0.7272182483448144   T   T   T
  0.0884430812552618  0.1716372804279966  0.7805803879478579   T   T   T
  0.9426220070338392  0.1677782803167839  0.7325028682865948   T   T   T
  0.5420726280918239  0.8429727130829858  0.7273897735940802   T   T   T
  0.5519137465302231  0.1374325041796219  0.7324432911248020   T   T   T
  0.3986773316086185  0.1556240638856557  0.7810777277175567   T   T   T
  0.9571655887292253  0.4643810374315880  0.7286675831804442   T   T   T
  0.2454497799845582  0.5004624976254547  0.7423550788822775   T   T   T
  0.1307894899518159  0.6289440323931270  0.7263207770657695   T   T   T
  0.3756800030975412  0.5033360371777457  0.7373005215460394   T   T   T
  0.2201186617737502  0.4996664846745004  0.7829332249672413   T   T   T
 
  0.00000000E+00  0.00000000E+00  0.00000000E+00
  0.00000000E+00  0.00000000E+00  0.00000000E+00
  0.00000000E+00  0.00000000E+00  0.00000000E+00
  0.00000000E+00  0.00000000E+00  0.00000000E+00
  0.00000000E+00  0.00000000E+00  0.00000000E+00
  0.00000000E+00  0.00000000E+00  0.00000000E+00
  0.00000000E+00  0.00000000E+00  0.00000000E+00
  0.00000000E+00  0.00000000E+00  0.00000000E+00
  0.00000000E+00  0.00000000E+00  0.00000000E+00
  0.00000000E+00  0.00000000E+00  0.00000000E+00
  0.00000000E+00  0.00000000E+00  0.00000000E+00
  0.00000000E+00  0.00000000E+00  0.00000000E+00
  0.00000000E+00  0.00000000E+00  0.00000000E+00
  0.00000000E+00  0.00000000E+00  0.00000000E+00
  0.00000000E+00  0.00000000E+00  0.00000000E+00
  0.00000000E+00  0.00000000E+00  0.00000000E+00
  0.00000000E+00  0.00000000E+00  0.00000000E+00
  0.00000000E+00  0.00000000E+00  0.00000000E+00
  0.00000000E+00  0.00000000E+00  0.00000000E+00
  0.00000000E+00  0.00000000E+00  0.00000000E+00
  0.00000000E+00  0.00000000E+00  0.00000000E+00
  0.00000000E+00  0.00000000E+00  0.00000000E+00
  0.00000000E+00  0.00000000E+00  0.00000000E+00
  0.00000000E+00  0.00000000E+00  0.00000000E+00
  0.00000000E+00  0.00000000E+00  0.00000000E+00
  0.00000000E+00  0.00000000E+00  0.00000000E+00
  0.00000000E+00  0.00000000E+00  0.00000000E+00
  0.00000000E+00  0.00000000E+00  0.00000000E+00
  0.00000000E+00  0.00000000E+00  0.00000000E+00
  0.00000000E+00  0.00000000E+00  0.00000000E+00
  0.00000000E+00  0.00000000E+00  0.00000000E+00
  0.00000000E+00  0.00000000E+00  0.00000000E+00
  0.00000000E+00  0.00000000E+00  0.00000000E+00
  0.00000000E+00  0.00000000E+00  0.00000000E+00
  0.00000000E+00  0.00000000E+00  0.00000000E+00
  0.00000000E+00  0.00000000E+00  0.00000000E+00
  0.00000000E+00  0.00000000E+00  0.00000000E+00
  0.00000000E+00  0.00000000E+00  0.00000000E+00
  0.00000000E+00  0.00000000E+00  0.00000000E+00
  0.00000000E+00  0.00000000E+00  0.00000000E+00
  0.00000000E+00  0.00000000E+00  0.00000000E+00
  0.00000000E+00  0.00000000E+00  0.00000000E+00
  0.00000000E+00  0.00000000E+00  0.00000000E+00
  0.00000000E+00  0.00000000E+00  0.00000000E+00
  0.00000000E+00  0.00000000E+00  0.00000000E+00
  0.00000000E+00  0.00000000E+00  0.00000000E+00
  0.00000000E+00  0.00000000E+00  0.00000000E+00
  0.00000000E+00  0.00000000E+00  0.00000000E+00
  0.00000000E+00  0.00000000E+00  0.00000000E+00
  0.00000000E+00  0.00000000E+00  0.00000000E+00
  0.00000000E+00  0.00000000E+00  0.00000000E+00
  0.00000000E+00  0.00000000E+00  0.00000000E+00
  0.00000000E+00  0.00000000E+00  0.00000000E+00
