Pt                                      
   1.00000000000000     
     8.4555826189999994    0.0000000000000000    0.0000000000000000
     4.2277917970000001    7.3227490700000004    0.0000000000000000
     0.0000000000000000    0.0000000000000000   26.9039554599999988
   Pt   C    H    C    H 
    36     6     9     1     3
Selective dynamics
Direct
  0.0000000000000000  0.0000000000000000  0.3716925379999978   F   F   F
  0.3333332839999983  0.0000000000000000  0.3716925379999978   F   F   F
  0.6666666870000029  0.0000000000000000  0.3716925379999978   F   F   F
  0.0000000000000000  0.3333333129999971  0.3716925379999978   F   F   F
  0.3333333429999996  0.3333333129999971  0.3716925379999978   F   F   F
  0.6666666269999979  0.3333333129999971  0.3716925379999978   F   F   F
  0.0000000000756799  0.6666666269999979  0.3716925379999978   F   F   F
  0.3333333129999971  0.6666666269999979  0.3716925379999978   F   F   F
  0.6666666870000029  0.6666666269999979  0.3716925379999978   F   F   F
  0.1111110969999984  0.1111111270000009  0.4572308360000008   F   F   F
  0.4444444479999987  0.1111111270000009  0.4572308360000008   F   F   F
  0.7777777310000005  0.1111111270000009  0.4572308360000008   F   F   F
  0.1111111270000009  0.4444444180000033  0.4572308360000008   F   F   F
  0.4444444180000033  0.4444444180000033  0.4572308360000008   F   F   F
  0.7777776719999991  0.4444444180000033  0.4572308360000008   F   F   F
  0.1111111270000009  0.7777776719999991  0.4572308360000008   F   F   F
  0.4444444180000033  0.7777776719999991  0.4572308360000008   F   F   F
  0.7777776719999991  0.7777776719999991  0.4572308360000008   F   F   F
  0.2177950052306912  0.2207638439231587  0.5414771810126595   F   F   F
  0.5535573248211421  0.2238884105042942  0.5432028408342049   F   F   F
  0.8818402352367656  0.2233591949555560  0.5437844389545319   F   F   F
  0.2199637203718581  0.5569758576896291  0.5429579014866803   F   F   F
  0.5512405733697321  0.5550811281627830  0.5435274612936922   F   F   F
  0.8857319250599431  0.5547075534302692  0.5418770260221848   F   F   F
  0.2199420258071498  0.8851319235749600  0.5439559746562281   F   F   F
  0.5513957182776110  0.8893809841670617  0.5418968104699644   F   F   F
  0.8855669755948696  0.8892590062545338  0.5422443520795923   F   F   F
  0.9917881068962586  0.3318045556937150  0.6289711516762040   F   F   F
  0.3230097575071582  0.3291139067868158  0.6267378119559623   F   F   F
  0.6565552393447831  0.3360553354610474  0.6364076974232091   F   F   F
  0.3271793102303064  0.6612163715163391  0.6361296380422132   F   F   F
  0.6597512143178434  0.6674581108070043  0.6279590524652718   F   F   F
  0.9912168919518862  0.6664326037418604  0.6280481225914230   F   F   F
  0.9921871460449765  0.9993801713285464  0.6295753382828622   F   F   F
  0.3251222858166898  0.9980047448708120  0.6290714102562092   F   F   F
  0.6592241309518059  0.9990485349788827  0.6282598561500237   F   F   F
  0.3167284037326183  0.4846760704328261  0.7921761635287012   T   T   T
  0.2495165320127271  0.5474516280738015  0.7384694296873278   T   T   T
  0.3922002477518021  0.5769684076940962  0.7120411180386554   T   T   T
  0.5805863010561438  0.4115999890183275  0.7128022738298796   T   T   T
  0.5964926546670668  0.2488668895230788  0.7416841144373834   T   T   T
  0.5029583719302195  0.3027387581333159  0.7938530907037276   T   T   T
  0.2119766994460974  0.4685320540490636  0.8123083400596940   T   T   T
  0.3274253233386872  0.5943624614607756  0.8113048407623253   T   T   T
  0.1152486550217304  0.6732554376168309  0.7383797874592375   T   T   T
  0.2307162266296174  0.4416700226435211  0.7196487027404928   T   T   T
  0.3924556558092931  0.6993799862462282  0.7260977850177639   T   T   T
  0.6847593713195721  0.4470748637914568  0.7233825803857812   T   T   T
  0.5314594602452729  0.1842808500494755  0.7207518918007736   T   T   T
  0.7413478909598012  0.1435067022324290  0.7456946140559140   T   T   T
  0.5950061750794120  0.3207087962751558  0.8193835453266587   T   T   T
  0.4790644185950157  0.1447643771195075  0.8132516249494870   T   T   T
  0.6107404153119731  0.0165198979997427  0.8157397496117653   T   T   T
  0.4156879541943823  0.1761377822193708  0.8503485087333686   T   T   T
  0.3899763324591206  0.1215572580267192  0.7873536398022634   T   T   T
 
  0.00000000E+00  0.00000000E+00  0.00000000E+00
  0.00000000E+00  0.00000000E+00  0.00000000E+00
  0.00000000E+00  0.00000000E+00  0.00000000E+00
  0.00000000E+00  0.00000000E+00  0.00000000E+00
  0.00000000E+00  0.00000000E+00  0.00000000E+00
  0.00000000E+00  0.00000000E+00  0.00000000E+00
  0.00000000E+00  0.00000000E+00  0.00000000E+00
  0.00000000E+00  0.00000000E+00  0.00000000E+00
  0.00000000E+00  0.00000000E+00  0.00000000E+00
  0.00000000E+00  0.00000000E+00  0.00000000E+00
  0.00000000E+00  0.00000000E+00  0.00000000E+00
  0.00000000E+00  0.00000000E+00  0.00000000E+00
  0.00000000E+00  0.00000000E+00  0.00000000E+00
  0.00000000E+00  0.00000000E+00  0.00000000E+00
  0.00000000E+00  0.00000000E+00  0.00000000E+00
  0.00000000E+00  0.00000000E+00  0.00000000E+00
  0.00000000E+00  0.00000000E+00  0.00000000E+00
  0.00000000E+00  0.00000000E+00  0.00000000E+00
  0.00000000E+00  0.00000000E+00  0.00000000E+00
  0.00000000E+00  0.00000000E+00  0.00000000E+00
  0.00000000E+00  0.00000000E+00  0.00000000E+00
  0.00000000E+00  0.00000000E+00  0.00000000E+00
  0.00000000E+00  0.00000000E+00  0.00000000E+00
  0.00000000E+00  0.00000000E+00  0.00000000E+00
  0.00000000E+00  0.00000000E+00  0.00000000E+00
  0.00000000E+00  0.00000000E+00  0.00000000E+00
  0.00000000E+00  0.00000000E+00  0.00000000E+00
  0.00000000E+00  0.00000000E+00  0.00000000E+00
  0.00000000E+00  0.00000000E+00  0.00000000E+00
  0.00000000E+00  0.00000000E+00  0.00000000E+00
  0.00000000E+00  0.00000000E+00  0.00000000E+00
  0.00000000E+00  0.00000000E+00  0.00000000E+00
  0.00000000E+00  0.00000000E+00  0.00000000E+00
  0.00000000E+00  0.00000000E+00  0.00000000E+00
  0.00000000E+00  0.00000000E+00  0.00000000E+00
  0.00000000E+00  0.00000000E+00  0.00000000E+00
  0.00000000E+00  0.00000000E+00  0.00000000E+00
  0.00000000E+00  0.00000000E+00  0.00000000E+00
  0.00000000E+00  0.00000000E+00  0.00000000E+00
  0.00000000E+00  0.00000000E+00  0.00000000E+00
  0.00000000E+00  0.00000000E+00  0.00000000E+00
  0.00000000E+00  0.00000000E+00  0.00000000E+00
  0.00000000E+00  0.00000000E+00  0.00000000E+00
  0.00000000E+00  0.00000000E+00  0.00000000E+00
  0.00000000E+00  0.00000000E+00  0.00000000E+00
  0.00000000E+00  0.00000000E+00  0.00000000E+00
  0.00000000E+00  0.00000000E+00  0.00000000E+00
  0.00000000E+00  0.00000000E+00  0.00000000E+00
  0.00000000E+00  0.00000000E+00  0.00000000E+00
  0.00000000E+00  0.00000000E+00  0.00000000E+00
  0.00000000E+00  0.00000000E+00  0.00000000E+00
  0.00000000E+00  0.00000000E+00  0.00000000E+00
  0.00000000E+00  0.00000000E+00  0.00000000E+00
  0.00000000E+00  0.00000000E+00  0.00000000E+00
  0.00000000E+00  0.00000000E+00  0.00000000E+00
