Electronic structure
  PREC    = ACCURATE
  ADDGRID = .TRUE.
  LREAL   = Auto
  ENCUT   = 396
  ISYM    = 0
  ISPIN   = 1
Electronic minimization
  ALGO   = Fast
  EDIFF   = 1e-4
  NELM    = 1000
  MAXMIX  = 80
  BMIX    = 4
  ISMEAR  = 2
  SIGMA   = 0.2
Density functional
  GGA      = OR
  LUSE_VDW = .TRUE.
  AGGAC    = 0.0000
Job parameters
  LWAVE   = .FALSE.
Ionic relaxation
  IBRION  = 5
  NSW     = 10000
  NFREE   = 2
  POTIM   = 0.015
Parallelization
  NPAR    = 8
