Pt
   1.00000000000000
     8.4555826189999994    0.0000000000000000    0.0000000000000000
     4.2277917970000001    7.3227490700000004    0.0000000000000000
     0.0000000000000000    0.0000000000000000   26.9039554599999988
   Pt   C    H    C    H
    36     6     9     1     3
Selective dynamics
Direct
  0.0000000000000000  0.0000000000000000  0.3716925379999978   F   F   F
  0.3333332839999983  0.0000000000000000  0.3716925379999978   F   F   F
  0.6666666870000029  0.0000000000000000  0.3716925379999978   F   F   F
  0.0000000000000000  0.3333333129999971  0.3716925379999978   F   F   F
  0.3333333429999996  0.3333333129999971  0.3716925379999978   F   F   F
  0.6666666269999979  0.3333333129999971  0.3716925379999978   F   F   F
  0.0000000000756799  0.6666666269999979  0.3716925379999978   F   F   F
  0.3333333129999971  0.6666666269999979  0.3716925379999978   F   F   F
  0.6666666870000029  0.6666666269999979  0.3716925379999978   F   F   F
  0.1111110969999984  0.1111111270000009  0.4572308360000008   F   F   F
  0.4444444479999987  0.1111111270000009  0.4572308360000008   F   F   F
  0.7777777310000005  0.1111111270000009  0.4572308360000008   F   F   F
  0.1111111270000009  0.4444444180000033  0.4572308360000008   F   F   F
  0.4444444180000033  0.4444444180000033  0.4572308360000008   F   F   F
  0.7777776719999991  0.4444444180000033  0.4572308360000008   F   F   F
  0.1111111270000009  0.7777776719999991  0.4572308360000008   F   F   F
  0.4444444180000033  0.7777776719999991  0.4572308360000008   F   F   F
  0.7777776719999991  0.7777776719999991  0.4572308360000008   F   F   F
  0.2177950052306914  0.2207638439231556  0.5414771810126600   F   F   F
  0.5535573248211396  0.2238884105042966  0.5432028408342064   F   F   F
  0.8818402352367634  0.2233591949555548  0.5437844389545322   F   F   F
  0.2199637203718553  0.5569758576896257  0.5429579014866827   F   F   F
  0.5512405733697353  0.5550811281627794  0.5435274612936956   F   F   F
  0.8857319250599441  0.5547075534302716  0.5418770260221848   F   F   F
  0.2199420258071492  0.8851319235749576  0.5439559746562255   F   F   F
  0.5513957182776110  0.8893809841670649  0.5418968104699660   F   F   F
  0.8855669755948673  0.8892590062545316  0.5422443520795952   F   F   F
  0.9917881068962573  0.3318045556937153  0.6289711516762008   F   F   F
  0.3230097575071573  0.3291139067868142  0.6267378119559606   F   F   F
  0.6565552393447827  0.3360553354610482  0.6364076974232108   F   F   F
  0.3271793102303054  0.6612163715163399  0.6361296380422163   F   F   F
  0.6597512143178458  0.6674581108070041  0.6279590524652731   F   F   F
  0.9912168919518847  0.6664326037418599  0.6280481225914215   F   F   F
  0.9921871460449760  0.9993801713285493  0.6295753382828598   F   F   F
  0.3251222858166898  0.9980047448708150  0.6290714102562079   F   F   F
  0.6592241309518093  0.9990485349788824  0.6282598561500204   F   F   F
  0.3167284037326192  0.4846760704328286  0.7921761635286999   T   T   T
  0.2495165320127296  0.5474516280738048  0.7384694296873242   T   T   T
  0.3922002477517993  0.5769684076940996  0.7120411180386572   T   T   T
  0.5805863010561408  0.4115999890183299  0.7128022738298767   T   T   T
  0.5964926546670641  0.2488668895230798  0.7416841144373816   T   T   T
  0.5029583719302205  0.3027387581333176  0.7938530907037296   T   T   T
  0.2119766994460942  0.4685320540490603  0.8123083400596942   T   T   T
  0.3274253233386896  0.5943624614607722  0.8113048407623227   T   T   T
  0.1152486550217326  0.6732554376168278  0.7383797874592362   T   T   T
  0.2307162266296198  0.4416700226435234  0.7196487027404946   T   T   T
  0.3924556558092899  0.6993799862462307  0.7260977850177646   T   T   T
  0.6847593713195692  0.4470748637914556  0.7233825803857818   T   T   T
  0.5314594602452704  0.1842808500494769  0.7207518918007716   T   T   T
  0.7413478909598030  0.1435067022324307  0.7456946140559170   T   T   T
  0.5950061750794086  0.3207087962751576  0.8193835453266565   T   T   T
  0.4790644185950124  0.1447643771195094  0.8132516249494884   T   T   T
  0.6107404153119737  0.0165198979997433  0.8157397496117631   T   T   T
  0.4156879541943834  0.1761377822193707  0.8503485087333691   T   T   T
  0.3899763324591207  0.1215572580267175  0.7879111786378594   T   T   T
