Pt  C  H                                
   1.00000000000000     
     8.4555826186999994    0.0000000000000000    0.0000000000000000
     4.2277917969000001    7.3227490701000004    0.0000000000000000
     0.0000000000000000    0.0000000000000000   26.9039554595999988
   Pt   C    H    C    H 
    36     6     9     1     4
Selective dynamics
Direct
  0.0000000000000000  0.0000000000000000  0.3716925570671705   F   F   F
  0.3333336243166301  0.0000000000000000  0.3716925570671705   F   F   F
  0.6666672486332672  0.0000000000000000  0.3716925570671705   F   F   F
  0.0000004688310256  0.3333338308650582  0.3716925570671705   F   F   F
  0.3333329104970417  0.3333338308650582  0.3716925570671705   F   F   F
  0.6666665348136718  0.3333338308650582  0.3716925570671705   F   F   F
  0.0000004378151814  0.6666662961227630  0.3716925570671705   F   F   F
  0.3333340621318186  0.6666662961227630  0.3716925570671705   F   F   F
  0.6666665037978348  0.6666662961227630  0.3716925570671705   F   F   F
  0.1111105759488069  0.1111112769550218  0.4572309086101498   F   F   F
  0.4444442002654370  0.1111112769550218  0.4572309086101498   F   F   F
  0.7777778245820741  0.1111112769550218  0.4572309086101498   F   F   F
  0.1111117275835838  0.4444437422127265  0.4572309086101498   F   F   F
  0.4444441692496000  0.4444437422127265  0.4572309086101498   F   F   F
  0.7777777935662371  0.4444437422127265  0.4572309086101498   F   F   F
  0.1111110137639884  0.7777775730777847  0.4572309086101498   F   F   F
  0.4444446380806255  0.7777775730777847  0.4572309086101498   F   F   F
  0.7777782623972556  0.7777775730777847  0.4572309086101498   F   F   F
  0.2242939466073059  0.2251386158888837  0.5434968764996200   T   T   T
  0.5603654506537759  0.2237956609713341  0.5423778040309643   T   T   T
  0.8941065821689925  0.2256072942795196  0.5440370605604641   T   T   T
  0.2261623038944823  0.5572488638184966  0.5425461673379903   T   T   T
  0.5597557027096914  0.5569997372883215  0.5427839098079811   T   T   T
  0.8940918063737218  0.5551157481169242  0.5436423561733936   T   T   T
  0.2260289536427531  0.8904036893459366  0.5425533943451405   T   T   T
  0.5596862806494525  0.8905369052646724  0.5422405836711608   T   T   T
  0.8922763120785965  0.8910542454935060  0.5422018555415515   T   T   T
  0.0095976560959752  0.3376640950440841  0.6372244705928408   T   T   T
  0.3438491300401811  0.3365838911666294  0.6288045017123007   T   T   T
  0.6756289577122351  0.3365368924685567  0.6299137632826818   T   T   T
  0.3416993652607243  0.6700131693626415  0.6293971575672209   T   T   T
  0.6751137267368228  0.6705672401991913  0.6289659803010986   T   T   T
  0.0076321785787837  0.6713801386257224  0.6288705564261908   T   T   T
  0.0068195662512902  0.0039292731543315  0.6289199027039895   T   T   T
  0.3424219769440041  0.0031342200567601  0.6285429289940933   T   T   T
  0.6749304019569974  0.0038478364666119  0.6296123780090512   T   T   T
  0.9678313430507752  0.2974375928696808  0.8202691087969464   T   T   T
  0.9024893523558386  0.4863466101619430  0.7971055221880798   T   T   T
  0.8683009364197177  0.4853789474694037  0.7405489259422637   T   T   T
  0.0425488131464475  0.3407852817156158  0.7154025886785306   T   T   T
  0.1130173371845311  0.1511443420015349  0.7374217636095566   T   T   T
  0.1433081816574086  0.1553249339476532  0.7939650396441326   T   T   T
  0.0069369067891996  0.5266715114461650  0.8033776679484270   T   T   T
  0.7756096307904532  0.5909581464625899  0.8150388177525821   T   T   T
  0.8240163253047672  0.6219700753511538  0.7248552761143404   T   T   T
  0.1494839481579952  0.3791583925538273  0.7183250373012168   T   T   T
  0.0141319939858601  0.1039790708260687  0.7307711807868832   T   T   T
  0.2431801330448481  0.0505962411758538  0.7196455975299495   T   T   T
  0.2524987023921388  0.1889403630041472  0.8004562283165676   T   T   T
  0.1918875832884389  0.0177357039355639  0.8094297863753530   T   T   T
  0.7564148538532793  0.4557982333026818  0.7345087769631997   T   T   T
  0.9945402062167509  0.2973417855073472  0.8765994887081282   T   T   T
  0.8611607947311953  0.2605778750311261  0.8129681745672289   T   T   T
  0.1003228099028870  0.3325591929578318  0.8855123164004277   T   T   T
  0.0373276306835299  0.1619331131108557  0.8924784020381886   T   T   T
  0.8672428834346381  0.3970783700615901  0.8951204404271632   T   T   T
 
  0.00000000E+00  0.00000000E+00  0.00000000E+00
  0.00000000E+00  0.00000000E+00  0.00000000E+00
  0.00000000E+00  0.00000000E+00  0.00000000E+00
  0.00000000E+00  0.00000000E+00  0.00000000E+00
  0.00000000E+00  0.00000000E+00  0.00000000E+00
  0.00000000E+00  0.00000000E+00  0.00000000E+00
  0.00000000E+00  0.00000000E+00  0.00000000E+00
  0.00000000E+00  0.00000000E+00  0.00000000E+00
  0.00000000E+00  0.00000000E+00  0.00000000E+00
  0.00000000E+00  0.00000000E+00  0.00000000E+00
  0.00000000E+00  0.00000000E+00  0.00000000E+00
  0.00000000E+00  0.00000000E+00  0.00000000E+00
  0.00000000E+00  0.00000000E+00  0.00000000E+00
  0.00000000E+00  0.00000000E+00  0.00000000E+00
  0.00000000E+00  0.00000000E+00  0.00000000E+00
  0.00000000E+00  0.00000000E+00  0.00000000E+00
  0.00000000E+00  0.00000000E+00  0.00000000E+00
  0.00000000E+00  0.00000000E+00  0.00000000E+00
  0.00000000E+00  0.00000000E+00  0.00000000E+00
  0.00000000E+00  0.00000000E+00  0.00000000E+00
  0.00000000E+00  0.00000000E+00  0.00000000E+00
  0.00000000E+00  0.00000000E+00  0.00000000E+00
  0.00000000E+00  0.00000000E+00  0.00000000E+00
  0.00000000E+00  0.00000000E+00  0.00000000E+00
  0.00000000E+00  0.00000000E+00  0.00000000E+00
  0.00000000E+00  0.00000000E+00  0.00000000E+00
  0.00000000E+00  0.00000000E+00  0.00000000E+00
  0.00000000E+00  0.00000000E+00  0.00000000E+00
  0.00000000E+00  0.00000000E+00  0.00000000E+00
  0.00000000E+00  0.00000000E+00  0.00000000E+00
  0.00000000E+00  0.00000000E+00  0.00000000E+00
  0.00000000E+00  0.00000000E+00  0.00000000E+00
  0.00000000E+00  0.00000000E+00  0.00000000E+00
  0.00000000E+00  0.00000000E+00  0.00000000E+00
  0.00000000E+00  0.00000000E+00  0.00000000E+00
  0.00000000E+00  0.00000000E+00  0.00000000E+00
  0.00000000E+00  0.00000000E+00  0.00000000E+00
  0.00000000E+00  0.00000000E+00  0.00000000E+00
  0.00000000E+00  0.00000000E+00  0.00000000E+00
  0.00000000E+00  0.00000000E+00  0.00000000E+00
  0.00000000E+00  0.00000000E+00  0.00000000E+00
  0.00000000E+00  0.00000000E+00  0.00000000E+00
  0.00000000E+00  0.00000000E+00  0.00000000E+00
  0.00000000E+00  0.00000000E+00  0.00000000E+00
  0.00000000E+00  0.00000000E+00  0.00000000E+00
  0.00000000E+00  0.00000000E+00  0.00000000E+00
  0.00000000E+00  0.00000000E+00  0.00000000E+00
  0.00000000E+00  0.00000000E+00  0.00000000E+00
  0.00000000E+00  0.00000000E+00  0.00000000E+00
  0.00000000E+00  0.00000000E+00  0.00000000E+00
  0.00000000E+00  0.00000000E+00  0.00000000E+00
  0.00000000E+00  0.00000000E+00  0.00000000E+00
  0.00000000E+00  0.00000000E+00  0.00000000E+00
  0.00000000E+00  0.00000000E+00  0.00000000E+00
  0.00000000E+00  0.00000000E+00  0.00000000E+00
  0.00000000E+00  0.00000000E+00  0.00000000E+00
