Pt                                      
   1.00000000000000     
     8.4555826189999994    0.0000000000000000    0.0000000000000000
     4.2277917970000001    7.3227490700000004    0.0000000000000000
     0.0000000000000000    0.0000000000000000   26.9039554599999988
   Pt   C    H    C    H 
    36     6     7     1     3
Selective dynamics
Direct
  0.0000000000000000  0.0000000000000000  0.3716925570616425   F   F   F
  0.3333336243048066  0.0000000000000000  0.3716925570616425   F   F   F
  0.6666672486096132  0.0000000000000000  0.3716925570616425   F   F   F
  0.9999992861741873  0.3333338308696128  0.3716925570616425   F   F   F
  0.3333329104789939  0.3333338308696128  0.3716925570616425   F   F   F
  0.6666665347838006  0.3333338308696128  0.3716925570616425   F   F   F
  0.0000004378027469  0.6666662961318721  0.3716925570616425   F   F   F
  0.3333340621075536  0.6666662961318721  0.3716925570616425   F   F   F
  0.6666665037617463  0.6666662961318721  0.3716925570616425   F   F   F
  0.1111105759427957  0.1111112769565352  0.4572309086033570   F   F   F
  0.4444442002476023  0.1111112769565352  0.4572309086033570   F   F   F
  0.7777778245524090  0.1111112769565352  0.4572309086033570   F   F   F
  0.1111117275713553  0.4444437422187946  0.4572309086033570   F   F   F
  0.4444441692255410  0.4444437422187946  0.4572309086033570   F   F   F
  0.7777777935303476  0.4444437422187946  0.4572309086033570   F   F   F
  0.1111110137455427  0.7777775730884073  0.4572309086033570   F   F   F
  0.4444446380503493  0.7777775730884073  0.4572309086033570   F   F   F
  0.7777782623551559  0.7777775730884073  0.4572309086033570   F   F   F
  0.2239784471115059  0.2188956985491284  0.5445977322930872   T   T   T
  0.5538838420363894  0.2245838636498127  0.5416809253382989   T   T   T
  0.8876739890415442  0.2256684967131063  0.5415535220184572   T   T   T
  0.2232521211498804  0.5561775574525035  0.5423980959097443   T   T   T
  0.5526158728445573  0.5610022252074574  0.5446470750011104   T   T   T
  0.8843368445801927  0.5578434030873396  0.5430906930822410   T   T   T
  0.2235879444710756  0.8907897291476796  0.5437225324822808   T   T   T
  0.5525272573494139  0.8899205185469186  0.5448040860610135   T   T   T
  0.8878679522691357  0.8899711284010652  0.5411992678117057   T   T   T
  0.9991344424857977  0.3357311060073667  0.6294408642999675   T   T   T
  0.3320705437623775  0.3350540134476542  0.6294832520247745   T   T   T
  0.6646667549923401  0.3369180569469700  0.6276948335513498   T   T   T
  0.3259873224294019  0.6688478424447396  0.6328671949204584   T   T   T
  0.6703060193349836  0.6669352974184996  0.6366464133755874   T   T   T
  0.9986647321239637  0.6669854268397608  0.6269119123549004   T   T   T
  0.9921900666909316  0.0073341369845211  0.6262937956831931   T   T   T
  0.3366819039964999  0.9947186720741357  0.6383170854106683   T   T   T
  0.6666003956833244  0.0059657339092838  0.6272626961159359   T   T   T
  0.6105882505809120  0.5625242129171654  0.7405394715159744   T   T   T
  0.6291215460311698  0.7175425909529918  0.7154544521870807   T   T   T
  0.4183118759120220  0.5833798975209242  0.7411455009789164   T   T   T
  0.4580026900279929  0.8989674494374521  0.7152829268325761   T   T   T
  0.2770766696760680  0.7387340852752780  0.7090200862353837   T   T   T
  0.2842225472703536  0.9107499495157920  0.7127078768792555   T   T   T
  0.7104732472500271  0.4310365618043503  0.7235967056325280   T   T   T
  0.6555865340551253  0.5556012799097658  0.7795105324297090   T   T   T
  0.4243034426749691  0.4550035245483673  0.7301852826182252   T   T   T
  0.3647470803334845  0.6120417313265978  0.7796500625129681   T   T   T
  0.4665437321702386  0.0152846262801144  0.7297599761098368   T   T   T
  0.1388324958107240  0.7635589871821353  0.7162935585199818   T   T   T
  0.1632510595659490  0.0337638380157190  0.7262362836581061   T   T   T
  0.7891727086271337  0.7278858039923786  0.7385515419961164   T   T   T
  0.8060789155096467  0.8372424692349814  0.7216999057322525   T   T   T
  0.9181146530362118  0.5976289635890342  0.7346671274032709   T   T   T
  0.7617686318907918  0.7574577887311219  0.7787307298802384   T   T   T
 
  0.00000000E+00  0.00000000E+00  0.00000000E+00
  0.00000000E+00  0.00000000E+00  0.00000000E+00
  0.00000000E+00  0.00000000E+00  0.00000000E+00
  0.00000000E+00  0.00000000E+00  0.00000000E+00
  0.00000000E+00  0.00000000E+00  0.00000000E+00
  0.00000000E+00  0.00000000E+00  0.00000000E+00
  0.00000000E+00  0.00000000E+00  0.00000000E+00
  0.00000000E+00  0.00000000E+00  0.00000000E+00
  0.00000000E+00  0.00000000E+00  0.00000000E+00
  0.00000000E+00  0.00000000E+00  0.00000000E+00
  0.00000000E+00  0.00000000E+00  0.00000000E+00
  0.00000000E+00  0.00000000E+00  0.00000000E+00
  0.00000000E+00  0.00000000E+00  0.00000000E+00
  0.00000000E+00  0.00000000E+00  0.00000000E+00
  0.00000000E+00  0.00000000E+00  0.00000000E+00
  0.00000000E+00  0.00000000E+00  0.00000000E+00
  0.00000000E+00  0.00000000E+00  0.00000000E+00
  0.00000000E+00  0.00000000E+00  0.00000000E+00
  0.00000000E+00  0.00000000E+00  0.00000000E+00
  0.00000000E+00  0.00000000E+00  0.00000000E+00
  0.00000000E+00  0.00000000E+00  0.00000000E+00
  0.00000000E+00  0.00000000E+00  0.00000000E+00
  0.00000000E+00  0.00000000E+00  0.00000000E+00
  0.00000000E+00  0.00000000E+00  0.00000000E+00
  0.00000000E+00  0.00000000E+00  0.00000000E+00
  0.00000000E+00  0.00000000E+00  0.00000000E+00
  0.00000000E+00  0.00000000E+00  0.00000000E+00
  0.00000000E+00  0.00000000E+00  0.00000000E+00
  0.00000000E+00  0.00000000E+00  0.00000000E+00
  0.00000000E+00  0.00000000E+00  0.00000000E+00
  0.00000000E+00  0.00000000E+00  0.00000000E+00
  0.00000000E+00  0.00000000E+00  0.00000000E+00
  0.00000000E+00  0.00000000E+00  0.00000000E+00
  0.00000000E+00  0.00000000E+00  0.00000000E+00
  0.00000000E+00  0.00000000E+00  0.00000000E+00
  0.00000000E+00  0.00000000E+00  0.00000000E+00
  0.00000000E+00  0.00000000E+00  0.00000000E+00
  0.00000000E+00  0.00000000E+00  0.00000000E+00
  0.00000000E+00  0.00000000E+00  0.00000000E+00
  0.00000000E+00  0.00000000E+00  0.00000000E+00
  0.00000000E+00  0.00000000E+00  0.00000000E+00
  0.00000000E+00  0.00000000E+00  0.00000000E+00
  0.00000000E+00  0.00000000E+00  0.00000000E+00
  0.00000000E+00  0.00000000E+00  0.00000000E+00
  0.00000000E+00  0.00000000E+00  0.00000000E+00
  0.00000000E+00  0.00000000E+00  0.00000000E+00
  0.00000000E+00  0.00000000E+00  0.00000000E+00
  0.00000000E+00  0.00000000E+00  0.00000000E+00
  0.00000000E+00  0.00000000E+00  0.00000000E+00
  0.00000000E+00  0.00000000E+00  0.00000000E+00
  0.00000000E+00  0.00000000E+00  0.00000000E+00
  0.00000000E+00  0.00000000E+00  0.00000000E+00
  0.00000000E+00  0.00000000E+00  0.00000000E+00
