Automatic mesh
0
Gamma-Centered
8  8  1
0. 0. 0.
