Pt                                      
   1.00000000000000     
     8.4555826189999994    0.0000000000000000    0.0000000000000000
     4.2277917970000001    7.3227490700000004    0.0000000000000000
     0.0000000000000000    0.0000000000000000   26.9039554599999988
   Pt   C    H    C    H 
    36     6     7     1     3
Selective dynamics
Direct
  0.0000000000000000  0.0000000000000000  0.3716925570616425   F   F   F
  0.3333336243048066  0.0000000000000000  0.3716925570616425   F   F   F
  0.6666672486096132  0.0000000000000000  0.3716925570616425   F   F   F
  0.9999992861741873  0.3333338308696128  0.3716925570616425   F   F   F
  0.3333329104789939  0.3333338308696128  0.3716925570616425   F   F   F
  0.6666665347838006  0.3333338308696128  0.3716925570616425   F   F   F
  0.0000004378027469  0.6666662961318721  0.3716925570616425   F   F   F
  0.3333340621075536  0.6666662961318721  0.3716925570616425   F   F   F
  0.6666665037617463  0.6666662961318721  0.3716925570616425   F   F   F
  0.1111105759427957  0.1111112769565352  0.4572309086033570   F   F   F
  0.4444442002476023  0.1111112769565352  0.4572309086033570   F   F   F
  0.7777778245524090  0.1111112769565352  0.4572309086033570   F   F   F
  0.1111117275713553  0.4444437422187946  0.4572309086033570   F   F   F
  0.4444441692255410  0.4444437422187946  0.4572309086033570   F   F   F
  0.7777777935303476  0.4444437422187946  0.4572309086033570   F   F   F
  0.1111110137455427  0.7777775730884073  0.4572309086033570   F   F   F
  0.4444446380503493  0.7777775730884073  0.4572309086033570   F   F   F
  0.7777782623551559  0.7777775730884073  0.4572309086033570   F   F   F
  0.2236004594197905  0.2197862529501921  0.5445916135347576   T   T   T
  0.5537356011424293  0.2245892316003425  0.5419503708386453   T   T   T
  0.8880033813473851  0.2257050973857977  0.5419091377227592   T   T   T
  0.2226110647226690  0.5560152153669202  0.5425581111122696   T   T   T
  0.5530517483734751  0.5601375608880420  0.5445707176519180   T   T   T
  0.8853258953486373  0.5575458603165154  0.5432119046007550   T   T   T
  0.2229389195478002  0.8910566602229896  0.5439064278777483   T   T   T
  0.5530775919763052  0.8901876228833592  0.5449305098900438   T   T   T
  0.8878846153675694  0.8900293307795800  0.5414223493877338   T   T   T
 -0.0007116557228129  0.3355710415243835  0.6294264124027797   T   T   T
  0.3323518925677786  0.3350545101662371  0.6294751570002317   T   T   T
  0.6641588095621686  0.3378031092984499  0.6274833164671398   T   T   T
  0.3263074149951013  0.6688278235770068  0.6328701918259289   T   T   T
  0.6702007338540510  0.6671918262122336  0.6366341279263618   T   T   T
 -0.0014012316932526  0.6673116729503847  0.6269084957168664   T   T   T
  0.9930747357838646  0.0065254504413919  0.6262240892903711   T   T   T
  0.3366329830546080  0.9951738484572685  0.6384905507715175   T   T   T
  0.6666528628201868  0.0053880813445931  0.6271540304999458   T   T   T
  0.6107975048146201  0.5619851758589978  0.7406291012881591   T   T   T
  0.6299003225524000  0.7166659060897725  0.7151531064739330   T   T   T
  0.4183092043549974  0.5830813158573838  0.7410933138175727   T   T   T
  0.4579233648528694  0.8991696514877501  0.7150053839419015   T   T   T
  0.2770247370403970  0.7386759669945528  0.7089440506245969   T   T   T
  0.2838776924669110  0.9110690053294820  0.7124155192211283   T   T   T
  0.7104391175662010  0.4309964033341203  0.7234928161699729   T   T   T
  0.6552962338529931  0.5558878401442794  0.7795794055288675   T   T   T
  0.4242605895412326  0.4546061029085106  0.7300152837698515   T   T   T
  0.3645909392241957  0.6119944027044139  0.7796172247632662   T   T   T
  0.4663640106431545  0.0152267507375313  0.7298654901179256   T   T   T
  0.1385371562055695  0.7640988565173944  0.7163087296803230   T   T   T
  0.1630880740586615  0.0337507088526510  0.7262752797165049   T   T   T
  0.7889904863615831  0.7279615051884040  0.7385642907087512   T   T   T
  0.8059511859067877  0.8370886026867504  0.7217356201719319   T   T   T
  0.9179112959951395  0.5977654877124057  0.7346491109585862   T   T   T
  0.7615675687742640  0.7575534104727299  0.7787832370051888   T   T   T
 
  0.00000000E+00  0.00000000E+00  0.00000000E+00
  0.00000000E+00  0.00000000E+00  0.00000000E+00
  0.00000000E+00  0.00000000E+00  0.00000000E+00
  0.00000000E+00  0.00000000E+00  0.00000000E+00
  0.00000000E+00  0.00000000E+00  0.00000000E+00
  0.00000000E+00  0.00000000E+00  0.00000000E+00
  0.00000000E+00  0.00000000E+00  0.00000000E+00
  0.00000000E+00  0.00000000E+00  0.00000000E+00
  0.00000000E+00  0.00000000E+00  0.00000000E+00
  0.00000000E+00  0.00000000E+00  0.00000000E+00
  0.00000000E+00  0.00000000E+00  0.00000000E+00
  0.00000000E+00  0.00000000E+00  0.00000000E+00
  0.00000000E+00  0.00000000E+00  0.00000000E+00
  0.00000000E+00  0.00000000E+00  0.00000000E+00
  0.00000000E+00  0.00000000E+00  0.00000000E+00
  0.00000000E+00  0.00000000E+00  0.00000000E+00
  0.00000000E+00  0.00000000E+00  0.00000000E+00
  0.00000000E+00  0.00000000E+00  0.00000000E+00
  0.00000000E+00  0.00000000E+00  0.00000000E+00
  0.00000000E+00  0.00000000E+00  0.00000000E+00
  0.00000000E+00  0.00000000E+00  0.00000000E+00
  0.00000000E+00  0.00000000E+00  0.00000000E+00
  0.00000000E+00  0.00000000E+00  0.00000000E+00
  0.00000000E+00  0.00000000E+00  0.00000000E+00
  0.00000000E+00  0.00000000E+00  0.00000000E+00
  0.00000000E+00  0.00000000E+00  0.00000000E+00
  0.00000000E+00  0.00000000E+00  0.00000000E+00
  0.00000000E+00  0.00000000E+00  0.00000000E+00
  0.00000000E+00  0.00000000E+00  0.00000000E+00
  0.00000000E+00  0.00000000E+00  0.00000000E+00
  0.00000000E+00  0.00000000E+00  0.00000000E+00
  0.00000000E+00  0.00000000E+00  0.00000000E+00
  0.00000000E+00  0.00000000E+00  0.00000000E+00
  0.00000000E+00  0.00000000E+00  0.00000000E+00
  0.00000000E+00  0.00000000E+00  0.00000000E+00
  0.00000000E+00  0.00000000E+00  0.00000000E+00
  0.00000000E+00  0.00000000E+00  0.00000000E+00
  0.00000000E+00  0.00000000E+00  0.00000000E+00
  0.00000000E+00  0.00000000E+00  0.00000000E+00
  0.00000000E+00  0.00000000E+00  0.00000000E+00
  0.00000000E+00  0.00000000E+00  0.00000000E+00
  0.00000000E+00  0.00000000E+00  0.00000000E+00
  0.00000000E+00  0.00000000E+00  0.00000000E+00
  0.00000000E+00  0.00000000E+00  0.00000000E+00
  0.00000000E+00  0.00000000E+00  0.00000000E+00
  0.00000000E+00  0.00000000E+00  0.00000000E+00
  0.00000000E+00  0.00000000E+00  0.00000000E+00
  0.00000000E+00  0.00000000E+00  0.00000000E+00
  0.00000000E+00  0.00000000E+00  0.00000000E+00
  0.00000000E+00  0.00000000E+00  0.00000000E+00
  0.00000000E+00  0.00000000E+00  0.00000000E+00
  0.00000000E+00  0.00000000E+00  0.00000000E+00
  0.00000000E+00  0.00000000E+00  0.00000000E+00
