Pt  C  H                                
   1.00000000000000     
     8.4555826186999994    0.0000000000000000    0.0000000000000000
     4.2277917969000001    7.3227490701000004    0.0000000000000000
     0.0000000000000000    0.0000000000000000   26.9039554595999988
   Pt   C    H    C    H 
    36     6     6     1     5
Selective dynamics
Direct
  0.0000000000000000  0.0000000000000000  0.3716925570000029   F   F   F
  0.3333336339999988  0.0000000000000000  0.3716925570000029   F   F   F
  0.6666672679999976  0.0000000000000000  0.3716925570000029   F   F   F
  0.0000000014007497  0.3333338469999987  0.3716925570000029   F   F   F
  0.3333328880000010  0.3333338469999987  0.3716925570000029   F   F   F
  0.6666665219999999  0.3333338469999987  0.3716925570000029   F   F   F
  0.0000000099167821  0.6666663250000013  0.3716925570000029   F   F   F
  0.3333340670000027  0.6666663250000013  0.3716925570000029   F   F   F
  0.6666664600000018  0.6666663250000013  0.3716925570000029   F   F   F
  0.1111105800000018  0.1111112769999991  0.4572309120000000   F   F   F
  0.4444441859999984  0.1111112769999991  0.4572309120000000   F   F   F
  0.7777777639999996  0.1111112769999991  0.4572309120000000   F   F   F
  0.1111117390000018  0.4444437390000004  0.4572309120000000   F   F   F
  0.4444441890000022  0.4444437390000004  0.4572309120000000   F   F   F
  0.7777777659999998  0.4444437390000004  0.4572309120000000   F   F   F
  0.1111110089999983  0.7777775530000000  0.4572309120000000   F   F   F
  0.4444446429999971  0.7777775530000000  0.4572309120000000   F   F   F
  0.7777782770000030  0.7777775530000000  0.4572309120000000   F   F   F
  0.2198468599999970  0.2277352549999989  0.5409737470000024   F   F   F
  0.5545032140000004  0.2275138099999978  0.5444625579999993   F   F   F
  0.8841371199999983  0.2272753829999985  0.5432195300000018   F   F   F
  0.2198015390000023  0.5617162369999988  0.5440098230000032   F   F   F
  0.5516700860000014  0.5582846309999994  0.5435256729999978   F   F   F
  0.8827323289999995  0.5611304629999978  0.5434891290000010   F   F   F
  0.2189321110000009  0.8926517929999989  0.5427591050000018   F   F   F
  0.5542875670000029  0.8901017219999972  0.5435189559999998   F   F   F
  0.8854398799999998  0.8928788620000034  0.5423044590000003   F   F   F
  0.9977645069999994  0.3400601840000022  0.6279274279999996   F   F   F
  0.3263758860000010  0.3409405430000021  0.6285394690000032   F   F   F
  0.6638496710000013  0.3382991960000012  0.6368750569999975   F   F   F
  0.3230900300000030  0.6800336680000001  0.6339711429999966   F   F   F
  0.6565922719999975  0.6703246829999969  0.6340894439999971   F   F   F
  0.9914190719999993  0.6759752709999987  0.6292906030000012   F   F   F
  0.9914812569999967  0.0082815230000008  0.6288638839999976   F   F   F
  0.3256422340000000  0.0136336469999989  0.6270654039999997   F   F   F
  0.6616756410000022  0.0065340339999977  0.6297500659999997   F   F   F
  0.3891025839999998  0.4311690139999982  0.7481701789999988   T   T   T
  0.2947844429999975  0.6397875660000025  0.7456838120000029   T   T   T
  0.3823612280000006  0.7126694250000014  0.7092512689999992   T   T   T
  0.5867305929999986  0.6164423609999972  0.7075712930000009   T   T   T
  0.6794066579999978  0.4126585189999972  0.7121331940000033   T   T   T
  0.5983794910000029  0.3388263260000031  0.7509827089999987   T   T   T
  0.3002871119999995  0.6951239520000030  0.7826652210000020   T   T   T
  0.1485609360000026  0.6994825620000000  0.7367827469999995   T   T   T
  0.3234660769999991  0.8609759960000005  0.7141019439999994   T   T   T
  0.6571187249999966  0.1909209250000004  0.7446783250000024   T   T   T
  0.3510299829999965  0.3802077770000025  0.7147821040000011   T   T   T
  0.3377414850000022  0.3902794660000026  0.7805528029999991   T   T   T
  0.6616347049999973  0.3643689350000017  0.8030584739999966   T   T   T
  0.6192548699999989  0.5084581650000004  0.8103174869999989   T   T   T
  0.8113906640000010  0.2844908490000009  0.8064331659999979   T   T   T
  0.6021022819999970  0.3189558079999983  0.8323158709999987   T   T   T
  0.6509008199999968  0.6835069930000017  0.7278972140000022   T   T   T
  0.8270166269999991  0.3527681750000013  0.7180521441643962   T   T   T
 
  0.00000000E+00  0.00000000E+00  0.00000000E+00
  0.00000000E+00  0.00000000E+00  0.00000000E+00
  0.00000000E+00  0.00000000E+00  0.00000000E+00
  0.00000000E+00  0.00000000E+00  0.00000000E+00
  0.00000000E+00  0.00000000E+00  0.00000000E+00
  0.00000000E+00  0.00000000E+00  0.00000000E+00
  0.00000000E+00  0.00000000E+00  0.00000000E+00
  0.00000000E+00  0.00000000E+00  0.00000000E+00
  0.00000000E+00  0.00000000E+00  0.00000000E+00
  0.00000000E+00  0.00000000E+00  0.00000000E+00
  0.00000000E+00  0.00000000E+00  0.00000000E+00
  0.00000000E+00  0.00000000E+00  0.00000000E+00
  0.00000000E+00  0.00000000E+00  0.00000000E+00
  0.00000000E+00  0.00000000E+00  0.00000000E+00
  0.00000000E+00  0.00000000E+00  0.00000000E+00
  0.00000000E+00  0.00000000E+00  0.00000000E+00
  0.00000000E+00  0.00000000E+00  0.00000000E+00
  0.00000000E+00  0.00000000E+00  0.00000000E+00
  0.00000000E+00  0.00000000E+00  0.00000000E+00
  0.00000000E+00  0.00000000E+00  0.00000000E+00
  0.00000000E+00  0.00000000E+00  0.00000000E+00
  0.00000000E+00  0.00000000E+00  0.00000000E+00
  0.00000000E+00  0.00000000E+00  0.00000000E+00
  0.00000000E+00  0.00000000E+00  0.00000000E+00
  0.00000000E+00  0.00000000E+00  0.00000000E+00
  0.00000000E+00  0.00000000E+00  0.00000000E+00
  0.00000000E+00  0.00000000E+00  0.00000000E+00
  0.00000000E+00  0.00000000E+00  0.00000000E+00
  0.00000000E+00  0.00000000E+00  0.00000000E+00
  0.00000000E+00  0.00000000E+00  0.00000000E+00
  0.00000000E+00  0.00000000E+00  0.00000000E+00
  0.00000000E+00  0.00000000E+00  0.00000000E+00
  0.00000000E+00  0.00000000E+00  0.00000000E+00
  0.00000000E+00  0.00000000E+00  0.00000000E+00
  0.00000000E+00  0.00000000E+00  0.00000000E+00
  0.00000000E+00  0.00000000E+00  0.00000000E+00
  0.00000000E+00  0.00000000E+00  0.00000000E+00
  0.00000000E+00  0.00000000E+00  0.00000000E+00
  0.00000000E+00  0.00000000E+00  0.00000000E+00
  0.00000000E+00  0.00000000E+00  0.00000000E+00
  0.00000000E+00  0.00000000E+00  0.00000000E+00
  0.00000000E+00  0.00000000E+00  0.00000000E+00
  0.00000000E+00  0.00000000E+00  0.00000000E+00
  0.00000000E+00  0.00000000E+00  0.00000000E+00
  0.00000000E+00  0.00000000E+00  0.00000000E+00
  0.00000000E+00  0.00000000E+00  0.00000000E+00
  0.00000000E+00  0.00000000E+00  0.00000000E+00
  0.00000000E+00  0.00000000E+00  0.00000000E+00
  0.00000000E+00  0.00000000E+00  0.00000000E+00
  0.00000000E+00  0.00000000E+00  0.00000000E+00
  0.00000000E+00  0.00000000E+00  0.00000000E+00
  0.00000000E+00  0.00000000E+00  0.00000000E+00
  0.00000000E+00  0.00000000E+00  0.00000000E+00
  0.00000000E+00  0.00000000E+00  0.00000000E+00
