Pt  C  H
   1.00000000000000
     8.4555826186999994    0.0000000000000000    0.0000000000000000
     4.2277917969000001    7.3227490701000004    0.0000000000000000
     0.0000000000000000    0.0000000000000000   26.9039554595999988
   Pt   C    H    C    H
    36     6     6     1     5
Selective dynamics
Direct
0	0	0.371692557	F	F	F
0.333333634	0	0.371692557	F	F	F
0.666667268	0	0.371692557	F	F	F
1.40075E-09	0.333333847	0.371692557	F	F	F
0.333332888	0.333333847	0.371692557	F	F	F
0.666666522	0.333333847	0.371692557	F	F	F
9.91678E-09	0.666666325	0.371692557	F	F	F
0.333334067	0.666666325	0.371692557	F	F	F
0.66666646	0.666666325	0.371692557	F	F	F
0.11111058	0.111111277	0.457230912	F	F	F
0.444444186	0.111111277	0.457230912	F	F	F
0.777777764	0.111111277	0.457230912	F	F	F
0.111111739	0.444443739	0.457230912	F	F	F
0.444444189	0.444443739	0.457230912	F	F	F
0.777777766	0.444443739	0.457230912	F	F	F
0.111111009	0.777777553	0.457230912	F	F	F
0.444444643	0.777777553	0.457230912	F	F	F
0.777778277	0.777777553	0.457230912	F	F	F
0.21984686	0.227735255	0.540973747	F	F	F
0.554503214	0.22751381	0.544462558	F	F	F
0.88413712	0.227275383	0.54321953	F	F	F
0.219801539	0.561716237	0.544009823	F	F	F
0.551670086	0.558284631	0.543525673	F	F	F
0.882732329	0.561130463	0.543489129	F	F	F
0.218932111	0.892651793	0.542759105	F	F	F
0.554287567	0.890101722	0.543518956	F	F	F
0.88543988	0.892878862	0.542304459	F	F	F
0.997764507	0.340060184	0.627927428	F	F	F
0.326375886	0.340940543	0.628539469	F	F	F
0.663849671	0.338299196	0.636875057	F	F	F
0.32309003	0.680033668	0.633971143	F	F	F
0.656592272	0.670324683	0.634089444	F	F	F
0.991419072	0.675975271	0.629290603	F	F	F
0.991481257	0.008281523	0.628863884	F	F	F
0.325642234	0.013633647	0.627065404	F	F	F
0.661675641	0.006534034	0.629750066	F	F	F
0.389102584	0.431169014	0.748170179	T	T	T
0.294784443	0.639787566	0.745683812	T	T	T
0.382361228	0.712669425	0.709251269	T	T	T
0.586730593	0.616442361	0.707571293	T	T	T
0.679406658	0.412658519	0.712133194	T	T	T
0.598379491	0.338826326	0.750982709	T	T	T
0.300287112	0.695123952	0.782665221	T	T	T
0.148560936	0.699482562	0.736782747	T	T	T
0.323466077	0.860975996	0.714101944	T	T	T
0.657118725	0.190920925	0.744678325	T	T	T
0.351029983	0.380207777	0.714782104	T	T	T
0.337741485	0.390279466	0.780552803	T	T	T
0.661634705	0.364368935	0.803058474	T	T	T
0.61925487	0.508458165	0.810317487	T	T	T
0.811390664	0.284490849	0.806433166	T	T	T
0.602102282	0.318955808	0.832315871	T	T	T
0.65090082	0.683506993	0.727897214	T	T	T
0.827016627	0.352768175	0.718609683	T	T	T
