Pt  C  H                                
   1.00000000000000     
     8.4555826186999994    0.0000000000000000    0.0000000000000000
     4.2277917969000001    7.3227490701000004    0.0000000000000000
     0.0000000000000000    0.0000000000000000   26.9039554595999988
   Pt   C    H    C    H 
    36     6    10     1     3
Selective dynamics
Direct
  0.0000000000000000  0.0000000000000000  0.3716925570000029   F   F   F
  0.3333336339999988  0.0000000000000000  0.3716925570000029   F   F   F
  0.6666672679999976  0.0000000000000000  0.3716925570000029   F   F   F
  0.0000000014007497  0.3333338469999987  0.3716925570000029   F   F   F
  0.3333328880000010  0.3333338469999987  0.3716925570000029   F   F   F
  0.6666665219999999  0.3333338469999987  0.3716925570000029   F   F   F
  0.0000000099167821  0.6666663250000013  0.3716925570000029   F   F   F
  0.3333340670000027  0.6666663250000013  0.3716925570000029   F   F   F
  0.6666664600000018  0.6666663250000013  0.3716925570000029   F   F   F
  0.1111105800000018  0.1111112769999991  0.4572309120000000   F   F   F
  0.4444441859999984  0.1111112769999991  0.4572309120000000   F   F   F
  0.7777777639999996  0.1111112769999991  0.4572309120000000   F   F   F
  0.1111117390000018  0.4444437390000004  0.4572309120000000   F   F   F
  0.4444441890000022  0.4444437390000004  0.4572309120000000   F   F   F
  0.7777777659999998  0.4444437390000004  0.4572309120000000   F   F   F
  0.1111110089999983  0.7777775530000000  0.4572309120000000   F   F   F
  0.4444446429999971  0.7777775530000000  0.4572309120000000   F   F   F
  0.7777782770000030  0.7777775530000000  0.4572309120000000   F   F   F
  0.2172639839999988  0.2280305820000024  0.5418158000000020   F   F   F
  0.5518139830000024  0.2304682810000003  0.5440085390000036   F   F   F
  0.8806534429999999  0.2304808989999998  0.5442614179999978   F   F   F
  0.2171464010000008  0.5618539179999971  0.5419492400000010   F   F   F
  0.5520364619999967  0.5593269350000014  0.5438588159999966   F   F   F
  0.8838868109999964  0.5618894349999977  0.5421592710000027   F   F   F
  0.2163655840000018  0.8963172679999971  0.5418955330000017   F   F   F
  0.5504706310000032  0.8956711109999986  0.5421042950000015   F   F   F
  0.8836868129999971  0.8959765210000015  0.5423254800000024   F   F   F
  0.9904486900000009  0.3461674240000008  0.6287123829999999   F   F   F
  0.3222805509999986  0.3459060559999969  0.6281960929999997   F   F   F
  0.6545250309999986  0.3496733200000008  0.6402315260000009   F   F   F
  0.3213555239999977  0.6834305189999981  0.6275284029999995   F   F   F
  0.6562348920000005  0.6813329760000002  0.6285499110000003   F   F   F
  0.9889986479999990  0.6807376470000008  0.6285788040000000   F   F   F
  0.9886431830000006  0.0148241010000021  0.6294603440000017   F   F   F
  0.3225513679999992  0.0142341390000027  0.6291224679999985   F   F   F
  0.6560751530000033  0.0137345289999971  0.6289309840000001   F   F   F
  0.4454149299999983  0.3115357320000030  0.8078285810000025   T   T   T
  0.3868657550000023  0.5048824859999996  0.7895962469999986   T   T   T
  0.4295426890000016  0.5007287439999999  0.7335359260000018   T   T   T
  0.6314084509999986  0.3708888930000001  0.7210063679999976   T   T   T
  0.6944377599999996  0.1784736420000002  0.7413011249999997   T   T   T
  0.6486626760000007  0.1810777620000010  0.7973520749999992   T   T   T
  0.4567441479999985  0.5633240889999982  0.8110458960000031   T   T   T
  0.2389244780000013  0.5969505850000019  0.7948669909999992   T   T   T
  0.3870752750000008  0.6405830070000036  0.7203865030000003   T   T   T
  0.6247557379999975  0.1167073319999972  0.7208829140000006   T   T   T
  0.8424427670000014  0.0892383099999989  0.7352000699999977   T   T   T
  0.7321866659999969  0.2213860990000001  0.8197483779999999   T   T   T
  0.6882218510000015  0.0406604020000003  0.8085896389999974   T   T   T
  0.3438764149999969  0.4551736290000008  0.7139752710000025   T   T   T
  0.3632273779999977  0.2620260079999994  0.7883564930000020   T   T   T
  0.4170850980000012  0.3129321320000003  0.8478535949999966   T   T   T
  0.7530649030000021  0.4454554670000022  0.7390104759999971   T   T   T
  0.7505891980000001  0.4525612340000009  0.7800938379999991   T   T   T
  0.7054589099999973  0.5846835669999990  0.7249744630000023   T   T   T
  0.8963520730000029  0.3574888790000017  0.7270800351643985   T   T   T
 
  0.00000000E+00  0.00000000E+00  0.00000000E+00
  0.00000000E+00  0.00000000E+00  0.00000000E+00
  0.00000000E+00  0.00000000E+00  0.00000000E+00
  0.00000000E+00  0.00000000E+00  0.00000000E+00
  0.00000000E+00  0.00000000E+00  0.00000000E+00
  0.00000000E+00  0.00000000E+00  0.00000000E+00
  0.00000000E+00  0.00000000E+00  0.00000000E+00
  0.00000000E+00  0.00000000E+00  0.00000000E+00
  0.00000000E+00  0.00000000E+00  0.00000000E+00
  0.00000000E+00  0.00000000E+00  0.00000000E+00
  0.00000000E+00  0.00000000E+00  0.00000000E+00
  0.00000000E+00  0.00000000E+00  0.00000000E+00
  0.00000000E+00  0.00000000E+00  0.00000000E+00
  0.00000000E+00  0.00000000E+00  0.00000000E+00
  0.00000000E+00  0.00000000E+00  0.00000000E+00
  0.00000000E+00  0.00000000E+00  0.00000000E+00
  0.00000000E+00  0.00000000E+00  0.00000000E+00
  0.00000000E+00  0.00000000E+00  0.00000000E+00
  0.00000000E+00  0.00000000E+00  0.00000000E+00
  0.00000000E+00  0.00000000E+00  0.00000000E+00
  0.00000000E+00  0.00000000E+00  0.00000000E+00
  0.00000000E+00  0.00000000E+00  0.00000000E+00
  0.00000000E+00  0.00000000E+00  0.00000000E+00
  0.00000000E+00  0.00000000E+00  0.00000000E+00
  0.00000000E+00  0.00000000E+00  0.00000000E+00
  0.00000000E+00  0.00000000E+00  0.00000000E+00
  0.00000000E+00  0.00000000E+00  0.00000000E+00
  0.00000000E+00  0.00000000E+00  0.00000000E+00
  0.00000000E+00  0.00000000E+00  0.00000000E+00
  0.00000000E+00  0.00000000E+00  0.00000000E+00
  0.00000000E+00  0.00000000E+00  0.00000000E+00
  0.00000000E+00  0.00000000E+00  0.00000000E+00
  0.00000000E+00  0.00000000E+00  0.00000000E+00
  0.00000000E+00  0.00000000E+00  0.00000000E+00
  0.00000000E+00  0.00000000E+00  0.00000000E+00
  0.00000000E+00  0.00000000E+00  0.00000000E+00
  0.00000000E+00  0.00000000E+00  0.00000000E+00
  0.00000000E+00  0.00000000E+00  0.00000000E+00
  0.00000000E+00  0.00000000E+00  0.00000000E+00
  0.00000000E+00  0.00000000E+00  0.00000000E+00
  0.00000000E+00  0.00000000E+00  0.00000000E+00
  0.00000000E+00  0.00000000E+00  0.00000000E+00
  0.00000000E+00  0.00000000E+00  0.00000000E+00
  0.00000000E+00  0.00000000E+00  0.00000000E+00
  0.00000000E+00  0.00000000E+00  0.00000000E+00
  0.00000000E+00  0.00000000E+00  0.00000000E+00
  0.00000000E+00  0.00000000E+00  0.00000000E+00
  0.00000000E+00  0.00000000E+00  0.00000000E+00
  0.00000000E+00  0.00000000E+00  0.00000000E+00
  0.00000000E+00  0.00000000E+00  0.00000000E+00
  0.00000000E+00  0.00000000E+00  0.00000000E+00
  0.00000000E+00  0.00000000E+00  0.00000000E+00
  0.00000000E+00  0.00000000E+00  0.00000000E+00
  0.00000000E+00  0.00000000E+00  0.00000000E+00
  0.00000000E+00  0.00000000E+00  0.00000000E+00
  0.00000000E+00  0.00000000E+00  0.00000000E+00
