Pt  C  H
   1.00000000000000
     8.4555826186999994    0.0000000000000000    0.0000000000000000
     4.2277917969000001    7.3227490701000004    0.0000000000000000
     0.0000000000000000    0.0000000000000000   26.9039554595999988
   Pt   C    H    C    H
    36     6    10     1     3
Selective dynamics
Direct
0	0	0.371692557	F	F	F
0.333333634	0	0.371692557	F	F	F
0.666667268	0	0.371692557	F	F	F
1.40075E-09	0.333333847	0.371692557	F	F	F
0.333332888	0.333333847	0.371692557	F	F	F
0.666666522	0.333333847	0.371692557	F	F	F
9.91678E-09	0.666666325	0.371692557	F	F	F
0.333334067	0.666666325	0.371692557	F	F	F
0.66666646	0.666666325	0.371692557	F	F	F
0.11111058	0.111111277	0.457230912	F	F	F
0.444444186	0.111111277	0.457230912	F	F	F
0.777777764	0.111111277	0.457230912	F	F	F
0.111111739	0.444443739	0.457230912	F	F	F
0.444444189	0.444443739	0.457230912	F	F	F
0.777777766	0.444443739	0.457230912	F	F	F
0.111111009	0.777777553	0.457230912	F	F	F
0.444444643	0.777777553	0.457230912	F	F	F
0.777778277	0.777777553	0.457230912	F	F	F
0.217263984	0.228030582	0.5418158	F	F	F
0.551813983	0.230468281	0.544008539	F	F	F
0.880653443	0.230480899	0.544261418	F	F	F
0.217146401	0.561853918	0.54194924	F	F	F
0.552036462	0.559326935	0.543858816	F	F	F
0.883886811	0.561889435	0.542159271	F	F	F
0.216365584	0.896317268	0.541895533	F	F	F
0.550470631	0.895671111	0.542104295	F	F	F
0.883686813	0.895976521	0.54232548	F	F	F
0.99044869	0.346167424	0.628712383	F	F	F
0.322280551	0.345906056	0.628196093	F	F	F
0.654525031	0.34967332	0.640231526	F	F	F
0.321355524	0.683430519	0.627528403	F	F	F
0.656234892	0.681332976	0.628549911	F	F	F
0.988998648	0.680737647	0.628578804	F	F	F
0.988643183	0.014824101	0.629460344	F	F	F
0.322551368	0.014234139	0.629122468	F	F	F
0.656075153	0.013734529	0.628930984	F	F	F
0.44541493	0.311535732	0.807828581	T	T	T
0.386865755	0.504882486	0.789596247	T	T	T
0.429542689	0.500728744	0.733535926	T	T	T
0.631408451	0.370888893	0.721006368	T	T	T
0.69443776	0.178473642	0.741301125	T	T	T
0.648662676	0.181077762	0.797352075	T	T	T
0.456744148	0.563324089	0.811045896	T	T	T
0.238924478	0.596950585	0.794866991	T	T	T
0.387075275	0.640583007	0.720386503	T	T	T
0.624755738	0.116707332	0.720882914	T	T	T
0.842442767	0.08923831	0.73520007	T	T	T
0.732186666	0.221386099	0.819748378	T	T	T
0.688221851	0.040660402	0.808589639	T	T	T
0.343876415	0.455173629	0.713975271	T	T	T
0.363227378	0.262026008	0.788356493	T	T	T
0.417085098	0.312932132	0.847853595	T	T	T
0.753064903	0.445455467	0.739010476	T	T	T
0.750589198	0.452561234	0.780093838	T	T	T
0.70545891	0.584683567	0.724974463	T	T	T
0.896352073	0.357488879	0.727637574	T	T	T

