Pt  C  H                                
   1.00000000000000     
     8.4555826186999994    0.0000000000000000    0.0000000000000000
     4.2277917969000001    7.3227490701000004    0.0000000000000000
     0.0000000000000000    0.0000000000000000   26.9039554595999988
   Pt   C    H    C    H 
    36     6     6     1     5
Selective dynamics
Direct
  0.0000000000000000  0.0000000000000000  0.3716925570671705   F   F   F
  0.3333336341326358  0.0000000000000000  0.3716925570671705   F   F   F
  0.6666672681470018  0.0000000000000000  0.3716925570671705   F   F   F
  0.0000000014007497  0.3333338465695448  0.3716925570671705   F   F   F
  0.3333328883347235  0.3333338465695448  0.3716925570671705   F   F   F
  0.6666665224673594  0.3333338465695448  0.3716925570671705   F   F   F
  0.0000000099167750  0.6666663254833267  0.3716925570671705   F   F   F
  0.3333340669652713  0.6666663254833267  0.3716925570671705   F   F   F
  0.6666664604974102  0.6666663254833267  0.3716925570671705   F   F   F
  0.1111105802246470  0.1111112766818962  0.4572309115836930   F   F   F
  0.4444441860919284  0.1111112766818962  0.4572309115836930   F   F   F
  0.7777777638121250  0.1111112766818962  0.4572309115836930   F   F   F
  0.1111117387651959  0.4444437394815139  0.4572309115836930   F   F   F
  0.4444441885914969  0.4444437394815139  0.4572309115836930   F   F   F
  0.7777777663117007  0.4444437394815139  0.4572309115836930   F   F   F
  0.1111110092862901  0.7777775534130384  0.4572309115836930   F   F   F
  0.4444446434189260  0.7777775534130384  0.4572309115836930   F   F   F
  0.7777782774332920  0.7777775534130384  0.4572309115836930   F   F   F
  0.2198468603806530  0.2277352551222022  0.5409737472739213   T   T   T
  0.5545032143968753  0.2275138097169997  0.5444625578158383   T   T   T
  0.8841371201972230  0.2272753834137031  0.5432195295918697   T   T   T
  0.2198015387217781  0.5617162367040721  0.5440098234133738   T   T   T
  0.5516700864503660  0.5582846306004756  0.5435256729149196   T   T   T
  0.8827323288633125  0.5611304631458043  0.5434891290796544   T   T   T
  0.2189321113688984  0.8926517930064839  0.5427591046256743   T   T   T
  0.5542875670272386  0.8901017219238241  0.5435189555922688   T   T   T
  0.8854398800372987  0.8928788621695016  0.5423044592228329   T   T   T
  0.9977645070931116  0.3400601841863078  0.6279274282714101   T   T   T
  0.3263758863085607  0.3409405427224318  0.6285394691107338   T   T   T
  0.6638496711307088  0.3382991960892949  0.6368750572237617   T   T   T
  0.3230900298801693  0.6800336677964517  0.6339711431543322   T   T   T
  0.6565922717057119  0.6703246827377439  0.6340894436570335   T   T   T
  0.9914190720699390  0.6759752707677028  0.6292906030786476   T   T   T
  0.9914812567215693  0.0082815233260159  0.6288638843348602   T   T   T
  0.3256422335918470  0.0136336467246357  0.6270654035507400   T   T   T
  0.6616756409134327  0.0065340343386192  0.6297500664929209   T   T   T
  0.3891025842073108  0.4311690140347466  0.7481701785653273   T   T   T
  0.2947844425467221  0.6397875656334192  0.7456838122597261   T   T   T
  0.3823612284487701  0.7126694248580286  0.7092512687346407   T   T   T
  0.5867305926245717  0.6164423610896409  0.7075712930334087   T   T   T
  0.6794066576843174  0.4126585193956466  0.7121331940822191   T   T   T
  0.5983794914921552  0.3388263259424557  0.7509827089397830   T   T   T
  0.3002871122682484  0.6951239522041673  0.7826652206354694   T   T   T
  0.1485609364416873  0.6994825621433203  0.7367827467395506   T   T   T
  0.3234660774355853  0.8609759963909357  0.7141019442220481   T   T   T
  0.6571187248753345  0.1909209245379047  0.7446783250177820   T   T   T
  0.3510299829881001  0.3802077771957633  0.7147821037021426   T   T   T
  0.3377414852969205  0.3902794664519355  0.7805528033989863   T   T   T
  0.6616347053274861  0.3643689353048378  0.8030584735496519   T   T   T
  0.6192548696046996  0.5084581651984276  0.8103174872881732   T   T   T
  0.8113906639241553  0.2844908488951420  0.8064331660846249   T   T   T
  0.6021022819901710  0.3189558077313941  0.8323158707036107   T   T   T
  0.6509008204025608  0.6835069929574537  0.7278972142635184   T   T   T
  0.8270166272789820  0.3527681754727681  0.7186096829718973   T   T   T
 
  0.00000000E+00  0.00000000E+00  0.00000000E+00
  0.00000000E+00  0.00000000E+00  0.00000000E+00
  0.00000000E+00  0.00000000E+00  0.00000000E+00
  0.00000000E+00  0.00000000E+00  0.00000000E+00
  0.00000000E+00  0.00000000E+00  0.00000000E+00
  0.00000000E+00  0.00000000E+00  0.00000000E+00
  0.00000000E+00  0.00000000E+00  0.00000000E+00
  0.00000000E+00  0.00000000E+00  0.00000000E+00
  0.00000000E+00  0.00000000E+00  0.00000000E+00
  0.00000000E+00  0.00000000E+00  0.00000000E+00
  0.00000000E+00  0.00000000E+00  0.00000000E+00
  0.00000000E+00  0.00000000E+00  0.00000000E+00
  0.00000000E+00  0.00000000E+00  0.00000000E+00
  0.00000000E+00  0.00000000E+00  0.00000000E+00
  0.00000000E+00  0.00000000E+00  0.00000000E+00
  0.00000000E+00  0.00000000E+00  0.00000000E+00
  0.00000000E+00  0.00000000E+00  0.00000000E+00
  0.00000000E+00  0.00000000E+00  0.00000000E+00
  0.00000000E+00  0.00000000E+00  0.00000000E+00
  0.00000000E+00  0.00000000E+00  0.00000000E+00
  0.00000000E+00  0.00000000E+00  0.00000000E+00
  0.00000000E+00  0.00000000E+00  0.00000000E+00
  0.00000000E+00  0.00000000E+00  0.00000000E+00
  0.00000000E+00  0.00000000E+00  0.00000000E+00
  0.00000000E+00  0.00000000E+00  0.00000000E+00
  0.00000000E+00  0.00000000E+00  0.00000000E+00
  0.00000000E+00  0.00000000E+00  0.00000000E+00
  0.00000000E+00  0.00000000E+00  0.00000000E+00
  0.00000000E+00  0.00000000E+00  0.00000000E+00
  0.00000000E+00  0.00000000E+00  0.00000000E+00
  0.00000000E+00  0.00000000E+00  0.00000000E+00
  0.00000000E+00  0.00000000E+00  0.00000000E+00
  0.00000000E+00  0.00000000E+00  0.00000000E+00
  0.00000000E+00  0.00000000E+00  0.00000000E+00
  0.00000000E+00  0.00000000E+00  0.00000000E+00
  0.00000000E+00  0.00000000E+00  0.00000000E+00
  0.00000000E+00  0.00000000E+00  0.00000000E+00
  0.00000000E+00  0.00000000E+00  0.00000000E+00
  0.00000000E+00  0.00000000E+00  0.00000000E+00
  0.00000000E+00  0.00000000E+00  0.00000000E+00
  0.00000000E+00  0.00000000E+00  0.00000000E+00
  0.00000000E+00  0.00000000E+00  0.00000000E+00
  0.00000000E+00  0.00000000E+00  0.00000000E+00
  0.00000000E+00  0.00000000E+00  0.00000000E+00
  0.00000000E+00  0.00000000E+00  0.00000000E+00
  0.00000000E+00  0.00000000E+00  0.00000000E+00
  0.00000000E+00  0.00000000E+00  0.00000000E+00
  0.00000000E+00  0.00000000E+00  0.00000000E+00
  0.00000000E+00  0.00000000E+00  0.00000000E+00
  0.00000000E+00  0.00000000E+00  0.00000000E+00
  0.00000000E+00  0.00000000E+00  0.00000000E+00
  0.00000000E+00  0.00000000E+00  0.00000000E+00
  0.00000000E+00  0.00000000E+00  0.00000000E+00
  0.00000000E+00  0.00000000E+00  0.00000000E+00
