Pt  C  H                                
   1.00000000000000     
     8.4555826186999994    0.0000000000000000    0.0000000000000000
     4.2277917969000001    7.3227490701000004    0.0000000000000000
     0.0000000000000000    0.0000000000000000   26.9039554595999988
   Pt   C    H    C    H 
    36     6     6     1     5
Selective dynamics
Direct
  0.0000000000000000  0.0000000000000000  0.3716925570671705   F   F   F
  0.3333336341326358  0.0000000000000000  0.3716925570671705   F   F   F
  0.6666672681470018  0.0000000000000000  0.3716925570671705   F   F   F
  0.0000000014007497  0.3333338465695448  0.3716925570671705   F   F   F
  0.3333328883347235  0.3333338465695448  0.3716925570671705   F   F   F
  0.6666665224673594  0.3333338465695448  0.3716925570671705   F   F   F
  0.0000000099167750  0.6666663254833267  0.3716925570671705   F   F   F
  0.3333340669652713  0.6666663254833267  0.3716925570671705   F   F   F
  0.6666664604974102  0.6666663254833267  0.3716925570671705   F   F   F
  0.1111105802246470  0.1111112766818962  0.4572309115836930   F   F   F
  0.4444441860919284  0.1111112766818962  0.4572309115836930   F   F   F
  0.7777777638121250  0.1111112766818962  0.4572309115836930   F   F   F
  0.1111117387651959  0.4444437394815139  0.4572309115836930   F   F   F
  0.4444441885914969  0.4444437394815139  0.4572309115836930   F   F   F
  0.7777777663117007  0.4444437394815139  0.4572309115836930   F   F   F
  0.1111110092862901  0.7777775534130384  0.4572309115836930   F   F   F
  0.4444446434189260  0.7777775534130384  0.4572309115836930   F   F   F
  0.7777782774332920  0.7777775534130384  0.4572309115836930   F   F   F
  0.2191332329662709  0.2272815941908813  0.5412338454465898   T   T   T
  0.5537292272241523  0.2277467577522254  0.5441141141572686   T   T   T
  0.8834979861022987  0.2275523305357934  0.5432228276269472   T   T   T
  0.2194583675465837  0.5612376554974930  0.5436075270641810   T   T   T
  0.5517593149360713  0.5587128594317359  0.5444326583515073   T   T   T
  0.8827770938733381  0.5609255591080673  0.5432665267533154   T   T   T
  0.2188284827256140  0.8922882098668797  0.5427116871909172   T   T   T
  0.5536897824485322  0.8905543676548531  0.5433026037402328   T   T   T
  0.8849678494866845  0.8931755779498415  0.5429381691522067   T   T   T
  0.9958254433693562  0.3405129616244412  0.6275700073645955   T   T   T
  0.3267405574467445  0.3413847179515388  0.6280415243742118   T   T   T
  0.6631207614286013  0.3378349317041583  0.6368690978326869   T   T   T
  0.3227204900655014  0.6790483611926960  0.6337429411598552   T   T   T
  0.6570701362871338  0.6712754519375946  0.6341972754529852   T   T   T
  0.9915111598987009  0.6745365220592441  0.6287683932124705   T   T   T
  0.9923981706871495  0.0090349739138166  0.6283260120016144   T   T   T
  0.3256391988776398  0.0121466058875541  0.6267555401409003   T   T   T
  0.6597716415657349  0.0070509251279877  0.6292361850511589   T   T   T
  0.3891094392840511  0.4319777467266308  0.7482687341424994   T   T   T
  0.2949315744353092  0.6402210516211204  0.7452122575882842   T   T   T
  0.3822801014698605  0.7127509542689725  0.7086904497888518   T   T   T
  0.5869736003360342  0.6172446677510881  0.7072252482096264   T   T   T
  0.6795237190659308  0.4128017192096162  0.7118810051922108   T   T   T
  0.5982476932509131  0.3403193051409051  0.7510780172912375   T   T   T
  0.2997647549714645  0.6965849174211745  0.7820487365729369   T   T   T
  0.1492478631010842  0.6989876644066031  0.7360962968206403   T   T   T
  0.3236601580195524  0.8609611276502791  0.7135603817882326   T   T   T
  0.6575551864379595  0.1923336773631173  0.7451005947158932   T   T   T
  0.3518312298875146  0.3790309177144562  0.7151468876705391   T   T   T
  0.3368756824707176  0.3930965730482180  0.7808442773097994   T   T   T
  0.6612616729928532  0.3658739554666557  0.8031838282294731   T   T   T
  0.6199197567365083  0.5096185716881295  0.8106143914352230   T   T   T
  0.8105006689652388  0.2840151012318398  0.8067119633106450   T   T   T
  0.5999523122294715  0.3205371662112422  0.8319604099796101   T   T   T
  0.6500980291585381  0.6835977588467339  0.7285657804362619   T   T   T
  0.8270381635434196  0.3529014634687688  0.7185196397217061   T   T   T
 
  0.00000000E+00  0.00000000E+00  0.00000000E+00
  0.00000000E+00  0.00000000E+00  0.00000000E+00
  0.00000000E+00  0.00000000E+00  0.00000000E+00
  0.00000000E+00  0.00000000E+00  0.00000000E+00
  0.00000000E+00  0.00000000E+00  0.00000000E+00
  0.00000000E+00  0.00000000E+00  0.00000000E+00
  0.00000000E+00  0.00000000E+00  0.00000000E+00
  0.00000000E+00  0.00000000E+00  0.00000000E+00
  0.00000000E+00  0.00000000E+00  0.00000000E+00
  0.00000000E+00  0.00000000E+00  0.00000000E+00
  0.00000000E+00  0.00000000E+00  0.00000000E+00
  0.00000000E+00  0.00000000E+00  0.00000000E+00
  0.00000000E+00  0.00000000E+00  0.00000000E+00
  0.00000000E+00  0.00000000E+00  0.00000000E+00
  0.00000000E+00  0.00000000E+00  0.00000000E+00
  0.00000000E+00  0.00000000E+00  0.00000000E+00
  0.00000000E+00  0.00000000E+00  0.00000000E+00
  0.00000000E+00  0.00000000E+00  0.00000000E+00
  0.00000000E+00  0.00000000E+00  0.00000000E+00
  0.00000000E+00  0.00000000E+00  0.00000000E+00
  0.00000000E+00  0.00000000E+00  0.00000000E+00
  0.00000000E+00  0.00000000E+00  0.00000000E+00
  0.00000000E+00  0.00000000E+00  0.00000000E+00
  0.00000000E+00  0.00000000E+00  0.00000000E+00
  0.00000000E+00  0.00000000E+00  0.00000000E+00
  0.00000000E+00  0.00000000E+00  0.00000000E+00
  0.00000000E+00  0.00000000E+00  0.00000000E+00
  0.00000000E+00  0.00000000E+00  0.00000000E+00
  0.00000000E+00  0.00000000E+00  0.00000000E+00
  0.00000000E+00  0.00000000E+00  0.00000000E+00
  0.00000000E+00  0.00000000E+00  0.00000000E+00
  0.00000000E+00  0.00000000E+00  0.00000000E+00
  0.00000000E+00  0.00000000E+00  0.00000000E+00
  0.00000000E+00  0.00000000E+00  0.00000000E+00
  0.00000000E+00  0.00000000E+00  0.00000000E+00
  0.00000000E+00  0.00000000E+00  0.00000000E+00
  0.00000000E+00  0.00000000E+00  0.00000000E+00
  0.00000000E+00  0.00000000E+00  0.00000000E+00
  0.00000000E+00  0.00000000E+00  0.00000000E+00
  0.00000000E+00  0.00000000E+00  0.00000000E+00
  0.00000000E+00  0.00000000E+00  0.00000000E+00
  0.00000000E+00  0.00000000E+00  0.00000000E+00
  0.00000000E+00  0.00000000E+00  0.00000000E+00
  0.00000000E+00  0.00000000E+00  0.00000000E+00
  0.00000000E+00  0.00000000E+00  0.00000000E+00
  0.00000000E+00  0.00000000E+00  0.00000000E+00
  0.00000000E+00  0.00000000E+00  0.00000000E+00
  0.00000000E+00  0.00000000E+00  0.00000000E+00
  0.00000000E+00  0.00000000E+00  0.00000000E+00
  0.00000000E+00  0.00000000E+00  0.00000000E+00
  0.00000000E+00  0.00000000E+00  0.00000000E+00
  0.00000000E+00  0.00000000E+00  0.00000000E+00
  0.00000000E+00  0.00000000E+00  0.00000000E+00
  0.00000000E+00  0.00000000E+00  0.00000000E+00
