Pt C H C H                              
   1.00000000000000     
     8.4555826186999994    0.0000000000000000    0.0000000000000000
     4.2277917969000001    7.3227490701000004    0.0000000000000000
     0.0000000000000000    0.0000000000000000   26.9039554595999988
   Pt   C    H    C    H 
    36     6     6     1     3
Selective dynamics
Direct
  0.0000000000000000  0.0000000000000000  0.3716925382595306   F   F   F
  0.3333332837132588  0.0000000000000000  0.3716925382595306   F   F   F
  0.6666666865194273  0.0000000000000000  0.3716925382595306   F   F   F
  0.9999999999787050  0.3333333134364338  0.3716925382595306   F   F   F
  0.3333333432975536  0.3333333134364338  0.3716925382595306   F   F   F
  0.6666666268925425  0.3333333134364338  0.3716925382595306   F   F   F
  0.0000000000756799  0.6666666268728676  0.3716925382595306   F   F   F
  0.3333333134734602  0.6666666268728676  0.3716925382595306   F   F   F
  0.6666666865951072  0.6666666268728676  0.3716925382595306   F   F   F
  0.1111110969664892  0.1111111268747749  0.4572308361672768   F   F   F
  0.4444444477360321  0.1111111268747749  0.4572308361672768   F   F   F
  0.7777777314492909  0.1111111268747749  0.4572308361672768   F   F   F
  0.1111111268290585  0.4444444179152427  0.4572308361672768   F   F   F
  0.4444444179930116  0.4444444179152427  0.4572308361672768   F   F   F
  0.7777776717852021  0.4444444179152427  0.4572308361672768   F   F   F
  0.1111111268934764  0.7777776718112008  0.4572308361672768   F   F   F
  0.4444444179391667  0.7777776718112008  0.4572308361672768   F   F   F
  0.7777776718496270  0.7777776718112008  0.4572308361672768   F   F   F
  0.2214394337382135  0.2229259098362547  0.5451198923183015   T   T   T
  0.5527755326891628  0.2263399728024236  0.5426039002833714   T   T   T
  0.8893526747466116  0.2246150213223268  0.5432340070470428   T   T   T
  0.2251090103427525  0.5537177042207388  0.5436239134462538   T   T   T
  0.5554185911871963  0.5594272823583413  0.5417422343660723   T   T   T
  0.8919373581888277  0.5571928899808340  0.5423234426655948   T   T   T
  0.2239156714469208  0.8935133159528498  0.5454779251659267   T   T   T
  0.5533719428393958  0.8946475168229311  0.5430571605955036   T   T   T
  0.8959328658407871  0.8933632605039282  0.5426542141601681   T   T   T
  0.9884376076379523  0.3501238704644730  0.6311891962110563   T   T   T
  0.3293956066129577  0.3340813320800424  0.6354694866701106   T   T   T
  0.6617069627091053  0.3403247748825810  0.6279961800905183   T   T   T
  0.3355624123710406  0.6640257215669189  0.6287564899928964   T   T   T
  0.6713323331242627  0.6701470604181312  0.6271454709631767   T   T   T
  0.0015720072341876  0.6775423381456626  0.6287551796448066   T   T   T
  0.3514058292855538 -0.0094611506327663  0.6348027615271781   T   T   T
  0.6803217705780376  0.0037507151485591  0.6264987544681703   T   T   T
  0.0041039865434956  0.0172204719141396  0.6375719035373033   T   T   T
  0.1206252568385924  0.3683072635429064  0.7321169425187143   T   T   T
  0.3149240981300950  0.2641177973321137  0.7113231003687148   T   T   T
  0.3870094581573495  0.0628104571767477  0.7133509063351010   T   T   T
  0.9946171146902230  0.3072758873181582  0.7084498682658247   T   T   T
  0.2637573704564584  0.9914473795931671  0.7122282350339686   T   T   T
  0.0636731583181031  0.1059644254295079  0.7091308592235724   T   T   T
  0.0619672129418991  0.5167974254541422  0.7278493289270405   T   T   T
  0.4082973337081117  0.3003030035924525  0.7299543123374723   T   T   T
  0.8541543992934303  0.3862490725097191  0.7226335604268883   T   T   T
  0.3171003436483662  0.8514704128168666  0.7254791733261938   T   T   T
  0.9870473630251583  0.0588762975822661  0.7318879900918287   T   T   T
  0.1292796566833480  0.3405127736930477  0.7729780098700246   T   T   T
  0.5686584211162464  0.9470488413783554  0.7390905288495747   T   T   T
  0.6694505401060556  0.9874514730773408  0.7286906231591368   T   T   T
  0.6271619581805482  0.8006123995926745  0.7313283913897834   T   T   T
  0.5435254066318149  0.9691207567844249  0.7795657225877387   T   T   T
 
  0.00000000E+00  0.00000000E+00  0.00000000E+00
  0.00000000E+00  0.00000000E+00  0.00000000E+00
  0.00000000E+00  0.00000000E+00  0.00000000E+00
  0.00000000E+00  0.00000000E+00  0.00000000E+00
  0.00000000E+00  0.00000000E+00  0.00000000E+00
  0.00000000E+00  0.00000000E+00  0.00000000E+00
  0.00000000E+00  0.00000000E+00  0.00000000E+00
  0.00000000E+00  0.00000000E+00  0.00000000E+00
  0.00000000E+00  0.00000000E+00  0.00000000E+00
  0.00000000E+00  0.00000000E+00  0.00000000E+00
  0.00000000E+00  0.00000000E+00  0.00000000E+00
  0.00000000E+00  0.00000000E+00  0.00000000E+00
  0.00000000E+00  0.00000000E+00  0.00000000E+00
  0.00000000E+00  0.00000000E+00  0.00000000E+00
  0.00000000E+00  0.00000000E+00  0.00000000E+00
  0.00000000E+00  0.00000000E+00  0.00000000E+00
  0.00000000E+00  0.00000000E+00  0.00000000E+00
  0.00000000E+00  0.00000000E+00  0.00000000E+00
  0.00000000E+00  0.00000000E+00  0.00000000E+00
  0.00000000E+00  0.00000000E+00  0.00000000E+00
  0.00000000E+00  0.00000000E+00  0.00000000E+00
  0.00000000E+00  0.00000000E+00  0.00000000E+00
  0.00000000E+00  0.00000000E+00  0.00000000E+00
  0.00000000E+00  0.00000000E+00  0.00000000E+00
  0.00000000E+00  0.00000000E+00  0.00000000E+00
  0.00000000E+00  0.00000000E+00  0.00000000E+00
  0.00000000E+00  0.00000000E+00  0.00000000E+00
  0.00000000E+00  0.00000000E+00  0.00000000E+00
  0.00000000E+00  0.00000000E+00  0.00000000E+00
  0.00000000E+00  0.00000000E+00  0.00000000E+00
  0.00000000E+00  0.00000000E+00  0.00000000E+00
  0.00000000E+00  0.00000000E+00  0.00000000E+00
  0.00000000E+00  0.00000000E+00  0.00000000E+00
  0.00000000E+00  0.00000000E+00  0.00000000E+00
  0.00000000E+00  0.00000000E+00  0.00000000E+00
  0.00000000E+00  0.00000000E+00  0.00000000E+00
  0.00000000E+00  0.00000000E+00  0.00000000E+00
  0.00000000E+00  0.00000000E+00  0.00000000E+00
  0.00000000E+00  0.00000000E+00  0.00000000E+00
  0.00000000E+00  0.00000000E+00  0.00000000E+00
  0.00000000E+00  0.00000000E+00  0.00000000E+00
  0.00000000E+00  0.00000000E+00  0.00000000E+00
  0.00000000E+00  0.00000000E+00  0.00000000E+00
  0.00000000E+00  0.00000000E+00  0.00000000E+00
  0.00000000E+00  0.00000000E+00  0.00000000E+00
  0.00000000E+00  0.00000000E+00  0.00000000E+00
  0.00000000E+00  0.00000000E+00  0.00000000E+00
  0.00000000E+00  0.00000000E+00  0.00000000E+00
  0.00000000E+00  0.00000000E+00  0.00000000E+00
  0.00000000E+00  0.00000000E+00  0.00000000E+00
  0.00000000E+00  0.00000000E+00  0.00000000E+00
  0.00000000E+00  0.00000000E+00  0.00000000E+00
