Pt C H C H
   1.00000000000000
     8.4555826186999994 0.0000000000000000 0.0000000000000000
     4.2277917969000001 7.3227490701000004 0.0000000000000000
     0.0000000000000000 0.0000000000000000 26.9039554595999988
Pt C H C H
    36 6 6 1 3
Selective dynamics 
Direct
  0.0000000000000000 0.0000000000000000 0.3716925382595306 F F F
  0.3333332837132588 0.0000000000000000 0.3716925382595306 F F F
  0.6666666865194273 0.0000000000000000 0.3716925382595306 F F F
  0.9999999999787050 0.3333333134364338 0.3716925382595306 F F F
  0.3333333432975536 0.3333333134364338 0.3716925382595306 F F F
  0.6666666268925425 0.3333333134364338 0.3716925382595306 F F F
  0.0000000000756799 0.6666666268728676 0.3716925382595306 F F F
  0.3333333134734602 0.6666666268728676 0.3716925382595306 F F F
  0.6666666865951072 0.6666666268728676 0.3716925382595306 F F F
  0.1111110969664892 0.1111111268747749 0.4572308361672768 F F F
  0.4444444477360321 0.1111111268747749 0.4572308361672768 F F F
  0.7777777314492909 0.1111111268747749 0.4572308361672768 F F F
  0.1111111268290585 0.4444444179152427 0.4572308361672768 F F F
  0.4444444179930116 0.4444444179152427 0.4572308361672768 F F F
  0.7777776717852021 0.4444444179152427 0.4572308361672768 F F F
  0.1111111268934764 0.7777776718112008 0.4572308361672768 F F F
  0.4444444179391667 0.7777776718112008 0.4572308361672768 F F F
  0.7777776718496270 0.7777776718112008 0.4572308361672768 F F F
  0.2216466759908471 0.2237818210643212 0.5458718922143930 T T T
  0.5549947050677275 0.2255518713718416 0.5413747525990544 T T T
  0.8896790510764419 0.2258251328439371 0.5428656837623009 T T T
  0.2218632014283912 0.5600086334055661 0.5414001632529093 T T T
  0.5557090871695749 0.5605182196232903 0.5414893829022986 T T T
  0.8926037292101086 0.5557980096820998 0.5432138684075767 T T T
  0.2225067728241470 0.8955060841989635 0.5446063885118591 T T T
  0.5525047151019606 0.8947950494797681 0.5436999178863076 T T T
  0.8922780385856015 0.8935034785434510 0.5431669123815652 T T T
  0.9938142457694781 0.3434932805070758 0.6347319613291305 T T T
  0.3334237993410198 0.3444352858225415 0.6273472768175523 T T T
  0.6626642496062587 0.3421820126550159 0.6271638402696880 T T T
  0.3348309919722467 0.6694883906434868 0.6274375855671224 T T T
  0.6707176705641444 0.6717514623621454 0.6277353507131238 T T T
  0.0008804395550186 0.6743126752523168 0.6293634891434223 T T T
  0.3435342306857336 0.0042410224442264 0.6383297583489593 T T T
  0.6727060689839064 0.0069535715049369 0.6277479113786981 T T T
  0.0013447140036860 0.0108828928849292 0.6337854502560205 T T T
  0.1240183470630262 0.3673116052946651 0.7321264504920251 T T T
  0.3150323053684662 0.2658786840954508 0.7090342498875342 T T T
  0.3871482411036013 0.0651024805153800 0.7134165305580777 T T T
  0.9949123414423358 0.3057274121578860 0.7108723872491773 T T T
  0.2623296077761781 0.9930300831614017 0.7135590119089580 T T T
  0.0634411212291103 0.1058012709365807 0.7107279012699648 T T T
  0.0613881821182682 0.5163467680124634 0.7289604107615686 T T T
  0.4096591803142783 0.3063296690811462 0.7245251578094912 T T T
  0.8552574990406944 0.3858619397994129 0.7252426195646797 T T T
  0.3178045717844520 0.8529887311286823 0.7267037648112317 T T T
  0.9827120163968434 0.0544527714118951 0.7296575840574430 T T T
  0.1431583191841406 0.3337018790758593 0.7726456647329419 T T T
  0.5678783885082052 0.9474146405070252 0.7396561879951522 T T T
  0.6709936989902990 0.9853862145264449 0.7302646753244487 T T T
  0.6237602997726246 0.8017918187064732 0.7312614307774525 T T T
  0.5422828309649999 0.9657880194267191 0.7801523624628753 T T T
