Pt C H C H                              
   1.00000000000000     
     8.4555826186999994    0.0000000000000000    0.0000000000000000
     4.2277917969000001    7.3227490701000004    0.0000000000000000
     0.0000000000000000    0.0000000000000000   26.9039554595999988
   Pt   C    H    C    H 
    36     6     6     1     3
Selective dynamics
Direct
  0.0000000000000000  0.0000000000000000  0.3716925382595306   F   F   F
  0.3333332837132588  0.0000000000000000  0.3716925382595306   F   F   F
  0.6666666865194273  0.0000000000000000  0.3716925382595306   F   F   F
  0.9999999999787050  0.3333333134364338  0.3716925382595306   F   F   F
  0.3333333432975536  0.3333333134364338  0.3716925382595306   F   F   F
  0.6666666268925425  0.3333333134364338  0.3716925382595306   F   F   F
  0.0000000000756799  0.6666666268728676  0.3716925382595306   F   F   F
  0.3333333134734602  0.6666666268728676  0.3716925382595306   F   F   F
  0.6666666865951072  0.6666666268728676  0.3716925382595306   F   F   F
  0.1111110969664892  0.1111111268747749  0.4572308361672768   F   F   F
  0.4444444477360321  0.1111111268747749  0.4572308361672768   F   F   F
  0.7777777314492909  0.1111111268747749  0.4572308361672768   F   F   F
  0.1111111268290585  0.4444444179152427  0.4572308361672768   F   F   F
  0.4444444179930116  0.4444444179152427  0.4572308361672768   F   F   F
  0.7777776717852021  0.4444444179152427  0.4572308361672768   F   F   F
  0.1111111268934764  0.7777776718112008  0.4572308361672768   F   F   F
  0.4444444179391667  0.7777776718112008  0.4572308361672768   F   F   F
  0.7777776718496270  0.7777776718112008  0.4572308361672768   F   F   F
  0.2214394337382117  0.2229259098362562  0.5451198923183043   F   F   F
  0.5527755326891608  0.2263399728024211  0.5426039002833747   F   F   F
  0.8893526747466112  0.2246150213223288  0.5432340070470403   F   F   F
  0.2251090103427558  0.5537177042207375  0.5436239134462539   F   F   F
  0.5554185911871983  0.5594272823583424  0.5417422343660689   F   F   F
  0.8919373581888266  0.5571928899808327  0.5423234426655981   F   F   F
  0.2239156714469175  0.8935133159528519  0.5454779251659261   F   F   F
  0.5533719428393979  0.8946475168229284  0.5430571605955024   F   F   F
  0.8959328658407841  0.8933632605039250  0.5426542141601658   F   F   F
  0.9884376076379553  0.3501238704644720  0.6311891962110536   F   F   F
  0.3293956066129553  0.3340813320800393  0.6354694866701109   F   F   F
  0.6617069627091041  0.3403247748825819  0.6279961800905198   F   F   F
  0.3355624123710399  0.6640257215669223  0.6287564899928952   F   F   F
  0.6713323331242620  0.6701470604181310  0.6271454709631783   F   F   F
  0.0015720072341878  0.6775423381456633  0.6287551796448057   F   F   F
  0.3514058292855538  0.9905388493672334  0.6348027615271761   F   F   F
  0.6803217705780398  0.0037507151485556  0.6264987544681730   F   F   F
  0.0041039865434982  0.0172204719141362  0.6375719035373066   F   F   F
  0.1206252568385935  0.3683072635429099  0.7321169425187151   T   T   T
  0.3149240981300920  0.2641177973321120  0.7113231003687162   T   T   T
  0.3870094581573511  0.0628104571767452  0.7133509063351013   T   T   T
  0.9946171146902216  0.3072758873181556  0.7084498682658236   T   T   T
  0.2637573704564602  0.9914473795931684  0.7122282350339688   T   T   T
  0.0636731583181032  0.1059644254295051  0.7091308592235706   T   T   T
  0.0619672129419016  0.5167974254541434  0.7278493289270429   T   T   T
  0.4082973337081128  0.3003030035924539  0.7299543123374690   T   T   T
  0.8541543992934280  0.3862490725097203  0.7226335604268854   T   T   T
  0.3171003436483630  0.8514704128168660  0.7254791733261925   T   T   T
  0.9870473630251553  0.0588762975822661  0.7318879900918276   T   T   T
  0.1292796566833445  0.3405127736930496  0.7729780098700232   T   T   T
  0.5686584211162469  0.9470488413783542  0.7390905288495730   T   T   T
  0.6694505401060553  0.9874514730773427  0.7286906231591388   T   T   T
  0.6271619581805510  0.8006123995926728  0.7313283913897806   T   T   T
  0.5435254066318153  0.9691207567844271  0.7790081837521399   T   T   T
 
  0.00000000E+00  0.00000000E+00  0.00000000E+00
  0.00000000E+00  0.00000000E+00  0.00000000E+00
  0.00000000E+00  0.00000000E+00  0.00000000E+00
  0.00000000E+00  0.00000000E+00  0.00000000E+00
  0.00000000E+00  0.00000000E+00  0.00000000E+00
  0.00000000E+00  0.00000000E+00  0.00000000E+00
  0.00000000E+00  0.00000000E+00  0.00000000E+00
  0.00000000E+00  0.00000000E+00  0.00000000E+00
  0.00000000E+00  0.00000000E+00  0.00000000E+00
  0.00000000E+00  0.00000000E+00  0.00000000E+00
  0.00000000E+00  0.00000000E+00  0.00000000E+00
  0.00000000E+00  0.00000000E+00  0.00000000E+00
  0.00000000E+00  0.00000000E+00  0.00000000E+00
  0.00000000E+00  0.00000000E+00  0.00000000E+00
  0.00000000E+00  0.00000000E+00  0.00000000E+00
  0.00000000E+00  0.00000000E+00  0.00000000E+00
  0.00000000E+00  0.00000000E+00  0.00000000E+00
  0.00000000E+00  0.00000000E+00  0.00000000E+00
  0.00000000E+00  0.00000000E+00  0.00000000E+00
  0.00000000E+00  0.00000000E+00  0.00000000E+00
  0.00000000E+00  0.00000000E+00  0.00000000E+00
  0.00000000E+00  0.00000000E+00  0.00000000E+00
  0.00000000E+00  0.00000000E+00  0.00000000E+00
  0.00000000E+00  0.00000000E+00  0.00000000E+00
  0.00000000E+00  0.00000000E+00  0.00000000E+00
  0.00000000E+00  0.00000000E+00  0.00000000E+00
  0.00000000E+00  0.00000000E+00  0.00000000E+00
  0.00000000E+00  0.00000000E+00  0.00000000E+00
  0.00000000E+00  0.00000000E+00  0.00000000E+00
  0.00000000E+00  0.00000000E+00  0.00000000E+00
  0.00000000E+00  0.00000000E+00  0.00000000E+00
  0.00000000E+00  0.00000000E+00  0.00000000E+00
  0.00000000E+00  0.00000000E+00  0.00000000E+00
  0.00000000E+00  0.00000000E+00  0.00000000E+00
  0.00000000E+00  0.00000000E+00  0.00000000E+00
  0.00000000E+00  0.00000000E+00  0.00000000E+00
  0.00000000E+00  0.00000000E+00  0.00000000E+00
  0.00000000E+00  0.00000000E+00  0.00000000E+00
  0.00000000E+00  0.00000000E+00  0.00000000E+00
  0.00000000E+00  0.00000000E+00  0.00000000E+00
  0.00000000E+00  0.00000000E+00  0.00000000E+00
  0.00000000E+00  0.00000000E+00  0.00000000E+00
  0.00000000E+00  0.00000000E+00  0.00000000E+00
  0.00000000E+00  0.00000000E+00  0.00000000E+00
  0.00000000E+00  0.00000000E+00  0.00000000E+00
  0.00000000E+00  0.00000000E+00  0.00000000E+00
  0.00000000E+00  0.00000000E+00  0.00000000E+00
  0.00000000E+00  0.00000000E+00  0.00000000E+00
  0.00000000E+00  0.00000000E+00  0.00000000E+00
  0.00000000E+00  0.00000000E+00  0.00000000E+00
  0.00000000E+00  0.00000000E+00  0.00000000E+00
  0.00000000E+00  0.00000000E+00  0.00000000E+00
